10.76                                   
   1.00000000000000     
    10.7600002288999992    0.0000000000000000    0.0000000000000000
     5.3800001143999996    9.3184335428999994    0.0000000000000000
     0.0000000000000000    0.0000000000000000   22.0000000000000000
   Pt   Fe   Co   Cu   Ni
    32    13    10    13    12
Direct
  0.7856324120746936  0.8798262232177961  0.3158160073759507
  0.0422059628828670  0.8824210990978831  0.3138953380985433
  0.2788840705179028  0.3809421302895522  0.3179080268917581
  0.8737573830352280  0.9626622317082260  0.4201578891258066
  0.1201398325898604  0.4634667120470472  0.4240753198265779
  0.1245801625448229  0.9614960726632369  0.4186367948377053
  0.8738326264153413  0.4595048112029415  0.4231741680592603
  0.3736326381218065  0.9603793752212577  0.4179517882906230
  0.8732195018799805  0.2112012745091241  0.4176578553689961
  0.1252583297284539  0.2115931687228564  0.4194683268034847
  0.6240300349506163  0.9606375281182675  0.4206317055815830
  0.8734463924591139  0.7113943209197012  0.4233029923796557
  0.3738724741588526  0.2093729614880594  0.4213581116111761
  0.3751219513521450  0.7126181501772417  0.4207332207675119
  0.6253349890802239  0.4618187965889099  0.4198625090313083
  0.1233295189835309  0.7110909598656223  0.4231772088268462
  0.6243546484990437  0.2104867054122122  0.4191890813359692
  0.5477348371231328  0.3759336666150881  0.3161500021260115
  0.5335031705788101  0.1250902399166135  0.3137067938513548
  0.5479267310542500  0.1232892166986304  0.0438354440154194
  0.1193453373649611  0.4597245861089031  0.1287449583557661
  0.0437099804244701  0.1364446795205468  0.3131374888899090
  0.0408040871472408  0.1311498911012852  0.0353636510072130
  0.1313044783081592  0.9579990200800166  0.1330364317540287
  0.3735324437122302  0.4615510403665887  0.4227474875583019
  0.4554859481821906  0.5468658091213535  0.2192060685085390
  0.6221692289357755  0.7115539484370258  0.4209696963352142
  0.9556912742983703  0.7873506540065099  0.2205031624226081
  0.7952123459763114  0.6232185039787594  0.3181540870439526
  0.2903290143899893  0.6314529519617048  0.3170909539473144
  0.2012375110269398  0.2788553671110999  0.2253960259389435
  0.7053132991235754  0.5507170639804532  0.2210761596664092
  0.0404155830234936  0.6319833884859053  0.3236839920455405
  0.7954783082502438  0.8611238289275568  0.0457152006531640
  0.0575212550794839  0.8641789042613971  0.0409535455759591
  0.0456084242458251  0.6318179268583719  0.0403526911165409
  0.6278305598418890  0.2253448316779328  0.1304824814115848
  0.3825655044691039  0.9535177246283872  0.1314263805105974
  0.0351058703812826  0.3841595969804754  0.3229085084973982
  0.0260615386655478  0.3810885896638085  0.0403102601602705
  0.8723711723154270  0.2151287605708381  0.1298020397506223
  0.9547335530652712  0.5442973253318597  0.2239073203046631
  0.2968559108764513  0.1158494469625204  0.3201172175932482
  0.5405141546482524  0.6287109432320633  0.3212047128038082
  0.2949751593497097  0.1163516447943615  0.0426677318922278
  0.5497857468404741  0.6253450526786752  0.0461306137803713
  0.2969566052368596  0.3823652154266196  0.0422564458495459
  0.6249458186400273  0.9474812472248654  0.1336582942103113
  0.7073783254148326  0.7925741239556117  0.2204095770711062
  0.8643637461183812  0.7029606029149850  0.1299859167551262
  0.6269787784857140  0.4592523668619509  0.1284489634042197
  0.2967087503881880  0.8751499905531466  0.3179301855420892
  0.3071779756004679  0.8685022953570823  0.0426992807989576
  0.6259846636134950  0.7158394751452339  0.1294188900187517
  0.2263697746015009  0.0265762640936752  0.2277658617301078
  0.5422786776107205  0.3823649547187805  0.0372911256320956
  0.3770236217498670  0.2055569132402621  0.1342270989128959
  0.1386540919531028  0.7046558401995301  0.1337982367243884
  0.7044384733627846  0.0510072048850320  0.2203902870828966
  0.7925508852847049  0.1296203063536325  0.3158680097209527
  0.5383328135290166  0.8730092946625674  0.3165839620524568
  0.7964640097094442  0.1229298524037957  0.0375270880691225
  0.5453781290966712  0.8713405885702799  0.0381163191571242
  0.2079968609184321  0.5423612536577656  0.2238731068778126
  0.9502517692680551  0.2988565663027042  0.2218493459995023
  0.8721394008246842  0.9645445904631329  0.1305576548379772
  0.7160608076865163  0.2907946614463233  0.2240872102629251
  0.4572063303228122  0.2931434561791845  0.2211508691678015
  0.8746667074115049  0.4568803761992045  0.1294246137657391
  0.1274815274228609  0.2065411393962083  0.1296872253999164
  0.7912047277656674  0.6211097396067473  0.0422462150470882
  0.2978218131875738  0.6268259632037398  0.0450505997679834
  0.3863157406518950  0.7128529518600319  0.1302027574103367
  0.3822704936797030  0.4518886614153130  0.1282433244901554
  0.7923447699099017  0.3811788137036575  0.3198470779832218
  0.7914440065443701  0.3765222275071886  0.0417798686976347
  0.9554123354893400  0.0542452715987463  0.2215384381602738
  0.4587321815564780  0.7962888195633050  0.2253854676790400
  0.2158448670090604  0.7978226494878674  0.2248111195234156
  0.4616344529819867  0.0286802995331606  0.2228021754672974
 
  0.00000000E+00  0.00000000E+00  0.00000000E+00
  0.00000000E+00  0.00000000E+00  0.00000000E+00
  0.00000000E+00  0.00000000E+00  0.00000000E+00
  0.00000000E+00  0.00000000E+00  0.00000000E+00
  0.00000000E+00  0.00000000E+00  0.00000000E+00
  0.00000000E+00  0.00000000E+00  0.00000000E+00
  0.00000000E+00  0.00000000E+00  0.00000000E+00
  0.00000000E+00  0.00000000E+00  0.00000000E+00
  0.00000000E+00  0.00000000E+00  0.00000000E+00
  0.00000000E+00  0.00000000E+00  0.00000000E+00
  0.00000000E+00  0.00000000E+00  0.00000000E+00
  0.00000000E+00  0.00000000E+00  0.00000000E+00
  0.00000000E+00  0.00000000E+00  0.00000000E+00
  0.00000000E+00  0.00000000E+00  0.00000000E+00
  0.00000000E+00  0.00000000E+00  0.00000000E+00
  0.00000000E+00  0.00000000E+00  0.00000000E+00
  0.00000000E+00  0.00000000E+00  0.00000000E+00
  0.00000000E+00  0.00000000E+00  0.00000000E+00
  0.00000000E+00  0.00000000E+00  0.00000000E+00
  0.00000000E+00  0.00000000E+00  0.00000000E+00
  0.00000000E+00  0.00000000E+00  0.00000000E+00
  0.00000000E+00  0.00000000E+00  0.00000000E+00
  0.00000000E+00  0.00000000E+00  0.00000000E+00
  0.00000000E+00  0.00000000E+00  0.00000000E+00
  0.00000000E+00  0.00000000E+00  0.00000000E+00
  0.00000000E+00  0.00000000E+00  0.00000000E+00
  0.00000000E+00  0.00000000E+00  0.00000000E+00
  0.00000000E+00  0.00000000E+00  0.00000000E+00
  0.00000000E+00  0.00000000E+00  0.00000000E+00
  0.00000000E+00  0.00000000E+00  0.00000000E+00
  0.00000000E+00  0.00000000E+00  0.00000000E+00
  0.00000000E+00  0.00000000E+00  0.00000000E+00
  0.00000000E+00  0.00000000E+00  0.00000000E+00
  0.00000000E+00  0.00000000E+00  0.00000000E+00
  0.00000000E+00  0.00000000E+00  0.00000000E+00
  0.00000000E+00  0.00000000E+00  0.00000000E+00
  0.00000000E+00  0.00000000E+00  0.00000000E+00
  0.00000000E+00  0.00000000E+00  0.00000000E+00
  0.00000000E+00  0.00000000E+00  0.00000000E+00
  0.00000000E+00  0.00000000E+00  0.00000000E+00
  0.00000000E+00  0.00000000E+00  0.00000000E+00
  0.00000000E+00  0.00000000E+00  0.00000000E+00
  0.00000000E+00  0.00000000E+00  0.00000000E+00
  0.00000000E+00  0.00000000E+00  0.00000000E+00
  0.00000000E+00  0.00000000E+00  0.00000000E+00
  0.00000000E+00  0.00000000E+00  0.00000000E+00
  0.00000000E+00  0.00000000E+00  0.00000000E+00
  0.00000000E+00  0.00000000E+00  0.00000000E+00
  0.00000000E+00  0.00000000E+00  0.00000000E+00
  0.00000000E+00  0.00000000E+00  0.00000000E+00
  0.00000000E+00  0.00000000E+00  0.00000000E+00
  0.00000000E+00  0.00000000E+00  0.00000000E+00
  0.00000000E+00  0.00000000E+00  0.00000000E+00
  0.00000000E+00  0.00000000E+00  0.00000000E+00
  0.00000000E+00  0.00000000E+00  0.00000000E+00
  0.00000000E+00  0.00000000E+00  0.00000000E+00
  0.00000000E+00  0.00000000E+00  0.00000000E+00
  0.00000000E+00  0.00000000E+00  0.00000000E+00
  0.00000000E+00  0.00000000E+00  0.00000000E+00
  0.00000000E+00  0.00000000E+00  0.00000000E+00
  0.00000000E+00  0.00000000E+00  0.00000000E+00
  0.00000000E+00  0.00000000E+00  0.00000000E+00
  0.00000000E+00  0.00000000E+00  0.00000000E+00
  0.00000000E+00  0.00000000E+00  0.00000000E+00
  0.00000000E+00  0.00000000E+00  0.00000000E+00
  0.00000000E+00  0.00000000E+00  0.00000000E+00
  0.00000000E+00  0.00000000E+00  0.00000000E+00
  0.00000000E+00  0.00000000E+00  0.00000000E+00
  0.00000000E+00  0.00000000E+00  0.00000000E+00
  0.00000000E+00  0.00000000E+00  0.00000000E+00
  0.00000000E+00  0.00000000E+00  0.00000000E+00
  0.00000000E+00  0.00000000E+00  0.00000000E+00
  0.00000000E+00  0.00000000E+00  0.00000000E+00
  0.00000000E+00  0.00000000E+00  0.00000000E+00
  0.00000000E+00  0.00000000E+00  0.00000000E+00
  0.00000000E+00  0.00000000E+00  0.00000000E+00
  0.00000000E+00  0.00000000E+00  0.00000000E+00
  0.00000000E+00  0.00000000E+00  0.00000000E+00
  0.00000000E+00  0.00000000E+00  0.00000000E+00
  0.00000000E+00  0.00000000E+00  0.00000000E+00
