10.96-high                              
   1.00000000000000     
    10.9600000381000005    0.0000000000000000    0.0000000000000000
     5.4800000191000002    9.4916384585000007    0.0000000000000000
     0.0000000000000000    0.0000000000000000   22.0000000000000000
   Pt   Fe   Co   Cu   Ni
    42    10     9    10     9
Direct
  0.7759987559678079  0.8694279325263222  0.3184779404820442
  0.0380274084753430  0.8689022830518670  0.3195024516562271
  0.0345216921185040  0.6165408280824922  0.3191289018698586
  0.0271002685290737  0.3699350014595658  0.3210918760273738
  0.2892528738892965  0.1066455903278238  0.3207195376918965
  0.2864294407441120  0.3692099941429901  0.3199909607484858
  0.8644887403498538  0.7006823962529976  0.1252208776268719
  0.8682634488024947  0.9513954849367829  0.4224207689061396
  0.1163125177573590  0.4533802406947078  0.4253064477086170
  0.1210656234632351  0.9510994718023413  0.4225418481214862
  0.8673171962470788  0.4507149954186968  0.4251673394209232
  0.3705403536546168  0.9475857878085178  0.4230089279485072
  0.8669965508980764  0.2031886752797476  0.4210153911002204
  0.1179357491528808  0.2016187193378252  0.4251985498683281
  0.6185042576369282  0.9491054255868501  0.4232749288013659
  0.8666328244091092  0.7028907240548322  0.4255458266851779
  0.3701151664266923  0.1985721801214164  0.4245821002050712
  0.3707870381568502  0.7038924009622807  0.4226019289420295
  0.6202023547521440  0.4548577786913817  0.4226478308480004
  0.1184846746559189  0.7012143957198581  0.4253555289233266
  0.6179330109624018  0.2035263962026324  0.4219724912484589
  0.5400570923092571  0.3747096017232072  0.3187119688282735
  0.5329001235463062  0.1194783920796942  0.3183983822198153
  0.5393047050501097  0.1206973103219957  0.0437666345135088
  0.1187112236972107  0.4464157078230148  0.1270903643915249
  0.0364204895780934  0.1150992793978343  0.3174031316103551
  0.0313256538069133  0.1339194750872559  0.0337321640186850
  0.1133889247025505  0.9592946228211837  0.1276903576448779
  0.3673231584570528  0.4533229554455924  0.4244654819662591
  0.4550423551515546  0.5340905621643840  0.2199139929597400
  0.6168918776244519  0.7015911175692288  0.4250176983333390
  0.9468167681663623  0.7867558457036021  0.2220431711086870
  0.7746341506356268  0.6222679452519435  0.3198184083754660
  0.2911739308797766  0.6214226397872588  0.3198673363023498
  0.3793809371595919  0.7040818671419282  0.1224381690367596
  0.1999186880549749  0.2791933411992685  0.2241823993422238
  0.6964447560361887  0.5461602365054380  0.2203434548134342
  0.2068302072723374  0.7922948545518953  0.2231332878731324
  0.4537481701657203  0.0186156383628251  0.2207261047164502
  0.6919734124965065  0.0454982081810958  0.2153738290017521
  0.7836390184980716  0.1229331602322961  0.3159659896731222
  0.9454130537539653  0.2829241644748945  0.2207981602998741
  0.7778588350479049  0.8747242311656117  0.0391278551858513
  0.0476163675980065  0.8491867130160226  0.0391322617771609
  0.0443967666682076  0.6177234782251122  0.0366672268457629
  0.6187137937869478  0.2221198436287970  0.1297997026234793
  0.3684764502205634  0.9497882433826978  0.1280207020207046
  0.0148974185569497  0.3761703320552911  0.0403902306240496
  0.8644269589144956  0.2101270049194316  0.1283579279632968
  0.9461587195105979  0.5354153450132731  0.2260616893858502
  0.5346499724155301  0.6199082433194995  0.3235426934995460
  0.2876995689068920  0.1145715708408093  0.0428313784842084
  0.5640857100394413  0.6044472558640184  0.0418703533704028
  0.2922038037070012  0.3772561304403972  0.0412799553236839
  0.6212708265335235  0.9324294766747581  0.1288080011276158
  0.6998340773560374  0.7820878036406650  0.2227792043676813
  0.6234998973430904  0.4486540579763250  0.1278123115271088
  0.2883322645893325  0.8660657353592986  0.3205001379574843
  0.2848630392993803  0.8891903628588242  0.0376517439352399
  0.6209243208787651  0.7084003604619948  0.1278705166264681
  0.2109062911823177  0.0271431566837893  0.2258556951768665
  0.5350081863730520  0.3748261393702407  0.0371258147311738
  0.3699613634452800  0.2045248381266993  0.1332244126505650
  0.1245865826486305  0.6945967593039573  0.1326200598527085
  0.5322476498441067  0.8604888275810291  0.3205545051366093
  0.7854263734936465  0.1254420640816798  0.0369687034522858
  0.5327600159139155  0.8678644074824402  0.0368265242203691
  0.2050792751817342  0.5333483514334366  0.2232939532360912
  0.8691149842219050  0.9595499908674565  0.1275508480251422
  0.7030402259084126  0.2888861990825353  0.2228022035294881
  0.4485143734125259  0.2918546370176891  0.2225581172203219
  0.8675100079231081  0.4484327398166502  0.1292138055007069
  0.1242811479574737  0.2002396807339545  0.1287035344110613
  0.7854570009867137  0.6042665953923978  0.0393630307121210
  0.2765153267011552  0.6133536303571271  0.0418388838475302
  0.3753061962712818  0.4462276184913794  0.1282170238876831
  0.7788297153453559  0.3761803998584337  0.3201516384346030
  0.7851574625374999  0.3690906072729548  0.0408191185400156
  0.9514526182072792  0.0383495539993453  0.2221383904896322
  0.4538784339795398  0.7838326689161933  0.2267069674393981
 
  0.00000000E+00  0.00000000E+00  0.00000000E+00
  0.00000000E+00  0.00000000E+00  0.00000000E+00
  0.00000000E+00  0.00000000E+00  0.00000000E+00
  0.00000000E+00  0.00000000E+00  0.00000000E+00
  0.00000000E+00  0.00000000E+00  0.00000000E+00
  0.00000000E+00  0.00000000E+00  0.00000000E+00
  0.00000000E+00  0.00000000E+00  0.00000000E+00
  0.00000000E+00  0.00000000E+00  0.00000000E+00
  0.00000000E+00  0.00000000E+00  0.00000000E+00
  0.00000000E+00  0.00000000E+00  0.00000000E+00
  0.00000000E+00  0.00000000E+00  0.00000000E+00
  0.00000000E+00  0.00000000E+00  0.00000000E+00
  0.00000000E+00  0.00000000E+00  0.00000000E+00
  0.00000000E+00  0.00000000E+00  0.00000000E+00
  0.00000000E+00  0.00000000E+00  0.00000000E+00
  0.00000000E+00  0.00000000E+00  0.00000000E+00
  0.00000000E+00  0.00000000E+00  0.00000000E+00
  0.00000000E+00  0.00000000E+00  0.00000000E+00
  0.00000000E+00  0.00000000E+00  0.00000000E+00
  0.00000000E+00  0.00000000E+00  0.00000000E+00
  0.00000000E+00  0.00000000E+00  0.00000000E+00
  0.00000000E+00  0.00000000E+00  0.00000000E+00
  0.00000000E+00  0.00000000E+00  0.00000000E+00
  0.00000000E+00  0.00000000E+00  0.00000000E+00
  0.00000000E+00  0.00000000E+00  0.00000000E+00
  0.00000000E+00  0.00000000E+00  0.00000000E+00
  0.00000000E+00  0.00000000E+00  0.00000000E+00
  0.00000000E+00  0.00000000E+00  0.00000000E+00
  0.00000000E+00  0.00000000E+00  0.00000000E+00
  0.00000000E+00  0.00000000E+00  0.00000000E+00
  0.00000000E+00  0.00000000E+00  0.00000000E+00
  0.00000000E+00  0.00000000E+00  0.00000000E+00
  0.00000000E+00  0.00000000E+00  0.00000000E+00
  0.00000000E+00  0.00000000E+00  0.00000000E+00
  0.00000000E+00  0.00000000E+00  0.00000000E+00
  0.00000000E+00  0.00000000E+00  0.00000000E+00
  0.00000000E+00  0.00000000E+00  0.00000000E+00
  0.00000000E+00  0.00000000E+00  0.00000000E+00
  0.00000000E+00  0.00000000E+00  0.00000000E+00
  0.00000000E+00  0.00000000E+00  0.00000000E+00
  0.00000000E+00  0.00000000E+00  0.00000000E+00
  0.00000000E+00  0.00000000E+00  0.00000000E+00
  0.00000000E+00  0.00000000E+00  0.00000000E+00
  0.00000000E+00  0.00000000E+00  0.00000000E+00
  0.00000000E+00  0.00000000E+00  0.00000000E+00
  0.00000000E+00  0.00000000E+00  0.00000000E+00
  0.00000000E+00  0.00000000E+00  0.00000000E+00
  0.00000000E+00  0.00000000E+00  0.00000000E+00
  0.00000000E+00  0.00000000E+00  0.00000000E+00
  0.00000000E+00  0.00000000E+00  0.00000000E+00
  0.00000000E+00  0.00000000E+00  0.00000000E+00
  0.00000000E+00  0.00000000E+00  0.00000000E+00
  0.00000000E+00  0.00000000E+00  0.00000000E+00
  0.00000000E+00  0.00000000E+00  0.00000000E+00
  0.00000000E+00  0.00000000E+00  0.00000000E+00
  0.00000000E+00  0.00000000E+00  0.00000000E+00
  0.00000000E+00  0.00000000E+00  0.00000000E+00
  0.00000000E+00  0.00000000E+00  0.00000000E+00
  0.00000000E+00  0.00000000E+00  0.00000000E+00
  0.00000000E+00  0.00000000E+00  0.00000000E+00
  0.00000000E+00  0.00000000E+00  0.00000000E+00
  0.00000000E+00  0.00000000E+00  0.00000000E+00
  0.00000000E+00  0.00000000E+00  0.00000000E+00
  0.00000000E+00  0.00000000E+00  0.00000000E+00
  0.00000000E+00  0.00000000E+00  0.00000000E+00
  0.00000000E+00  0.00000000E+00  0.00000000E+00
  0.00000000E+00  0.00000000E+00  0.00000000E+00
  0.00000000E+00  0.00000000E+00  0.00000000E+00
  0.00000000E+00  0.00000000E+00  0.00000000E+00
  0.00000000E+00  0.00000000E+00  0.00000000E+00
  0.00000000E+00  0.00000000E+00  0.00000000E+00
  0.00000000E+00  0.00000000E+00  0.00000000E+00
  0.00000000E+00  0.00000000E+00  0.00000000E+00
  0.00000000E+00  0.00000000E+00  0.00000000E+00
  0.00000000E+00  0.00000000E+00  0.00000000E+00
  0.00000000E+00  0.00000000E+00  0.00000000E+00
  0.00000000E+00  0.00000000E+00  0.00000000E+00
  0.00000000E+00  0.00000000E+00  0.00000000E+00
  0.00000000E+00  0.00000000E+00  0.00000000E+00
  0.00000000E+00  0.00000000E+00  0.00000000E+00
