Pt111                                   
   1.00000000000000     
    11.2227001190000006    0.0000000000000000    0.0000000000000000
     5.6113500595000003    9.7191434021000003    0.0000000000000000
     0.0000000000000000    0.0000000000000000   22.0000000000000000
   Pt   H 
    80     2
Direct
  0.7849903404460212  0.8692641870417823  0.3267266644261171
  0.0351326634794296  0.8692145606052614  0.3266181380340323
  0.0351333920230793  0.6190432024542886  0.3264528580463558
  0.7862517930356179  0.8682138320831752  0.0229910737954440
  0.0364035185636518  0.8681890161938960  0.0229229656024124
  0.0362584398865456  0.6184407348251251  0.0228441511441732
  0.6191359592043360  0.2019286926102643  0.1260717005274793
  0.3694060905109053  0.9511548716202772  0.1260250471580382
  0.0348221565743727  0.3690337035600587  0.3263242933227939
  0.0360654232212597  0.3685716312741085  0.0229057675772747
  0.8687035654839019  0.2020588483540129  0.1260203337621597
  0.9521496865509348  0.5354864924258684  0.2260729328712299
  0.2847660007362054  0.1190434681808331  0.3263498710779825
  0.5349217000119562  0.6191148455827080  0.3284541319546192
  0.2846466814342346  0.3689323757033629  0.3263442137050103
  0.2865750065930987  0.1180370244889829  0.0229302492666269
  0.5363185228562418  0.6182166824487404  0.0232174250281474
  0.2863865172167784  0.3683908129589063  0.0230300588837728
  0.6192048985764560  0.9517834343359449  0.1260000418277461
  0.7018671360289580  0.7854100430172156  0.2264750486089641
  0.8690079059763330  0.7020334666139223  0.1259769487311558
  0.6187782624771919  0.4522362231827455  0.1263217626224822
  0.2854247065711783  0.8680429093010030  0.3275107127393919
  0.2863275438222208  0.8681086440538788  0.0229800427569016
  0.6190219600209214  0.7019127710336684  0.1261299305418184
  0.2019718019243702  0.0354444538773477  0.2261741260571065
  0.8682299458007515  0.9530080262704000  0.4298283002634845
  0.1161673496403817  0.4525131385999989  0.4294217816994207
  0.1167409533861758  0.9537279652157953  0.4299030766007725
  0.8708585347515049  0.4509697885190189  0.4295755744151415
  0.3660847148832273  0.9557031406295173  0.4296030348225246
  0.8689046131544252  0.2016068457350055  0.4299203869418695
  0.1173802847936671  0.2022948563218915  0.4294885427002876
  0.6179113055050901  0.9543552495913674  0.4297708799817290
  0.8695387990830724  0.7027325617132673  0.4297788308133383
  0.3677417490492131  0.2009662065416274  0.4294304693100812
  0.3631722054302615  0.7072892885051330  0.4337274613029705
  0.6224652507099454  0.4480831485293176  0.4336852403468936
  0.1143241579513140  0.7046575058319507  0.4296716711351009
  0.6197980754171394  0.1991445750841832  0.4296910234093756
  0.5345677421455791  0.3696721864129077  0.3279921804938555
  0.5363930281206942  0.3681203348273642  0.0231191107027196
  0.5348765190061333  0.1193024707522748  0.3264526385149137
  0.5365327414566158  0.1181138152078035  0.0228615839205759
  0.8683336511250355  0.4522296363336453  0.1260267232494908
  0.1190707223443940  0.4521729428142917  0.1258155377543549
  0.0349217268614968  0.1190644512375275  0.3265062680623896
  0.0361791905877429  0.1180952150543664  0.0229524043591130
  0.1192046904732272  0.9515294134230852  0.1260290397185058
  0.3626013798959727  0.4473955212568496  0.4312483380017244
  0.4519675931721828  0.5356119726678392  0.2272369430041309
  0.6227136056970574  0.7075186275170040  0.4312102002943217
  0.3693144587556437  0.2018984700868325  0.1258041472767359
  0.1188624354680258  0.2017736641904293  0.1254107056171266
  0.9520317699845077  0.7855776103702419  0.2263489346108208
  0.7850726363704067  0.6189407128848369  0.3267660874592322
  0.2854663938699907  0.6187914863857431  0.3279844823376236
  0.7863355236909267  0.6182517422307340  0.0229508863453014
  0.2862027574116733  0.6183158422071743  0.0231249756007195
  0.3693844728415524  0.7016595769777938  0.1263135033878107
  0.3694999452979245  0.4522713082435610  0.1262278871265284
  0.2015261766570615  0.2850896747114681  0.2258146603518110
  0.7838233149763408  0.3696505843300391  0.3275027352055545
  0.7860791769295297  0.3683201164061105  0.0229887011838860
  0.9520093321165175  0.0356668343078620  0.2263705095185978
  0.4519607047534280  0.7851726938722334  0.2268055083278519
  0.7015828126189372  0.5355720401669171  0.2267903430652438
  0.2025470084199779  0.7852492855609445  0.2266610365249101
  0.4518073283904890  0.0358026585517706  0.2260783095728366
  0.1190506680704816  0.7020664986694962  0.1260663762375837
  0.7019666199861296  0.0356448420828955  0.2263571888578120
  0.7849518087535369  0.1193899142151973  0.3266482411442884
  0.5346636913582141  0.8693783369438969  0.3267536051473402
  0.7862517337419213  0.1183117000634265  0.0229423522887037
  0.5363259359270630  0.8682797899569867  0.0229342782362837
  0.2022302967260355  0.5356195861889473  0.2263303066406156
  0.9518240731462364  0.2855660939103413  0.2261788446908291
  0.8691718872266870  0.9519437207915518  0.1260144100239886
  0.7016715672536726  0.2861119478671774  0.2266533245059850
  0.4519806651127511  0.2858017427523127  0.2263527305751134
  0.4415140888350532  0.5268113249520571  0.4694564617136254
  0.5451872216407909  0.6308064667001685  0.4702007805369101
 
  0.00000000E+00  0.00000000E+00  0.00000000E+00
  0.00000000E+00  0.00000000E+00  0.00000000E+00
  0.00000000E+00  0.00000000E+00  0.00000000E+00
  0.00000000E+00  0.00000000E+00  0.00000000E+00
  0.00000000E+00  0.00000000E+00  0.00000000E+00
  0.00000000E+00  0.00000000E+00  0.00000000E+00
  0.00000000E+00  0.00000000E+00  0.00000000E+00
  0.00000000E+00  0.00000000E+00  0.00000000E+00
  0.00000000E+00  0.00000000E+00  0.00000000E+00
  0.00000000E+00  0.00000000E+00  0.00000000E+00
  0.00000000E+00  0.00000000E+00  0.00000000E+00
  0.00000000E+00  0.00000000E+00  0.00000000E+00
  0.00000000E+00  0.00000000E+00  0.00000000E+00
  0.00000000E+00  0.00000000E+00  0.00000000E+00
  0.00000000E+00  0.00000000E+00  0.00000000E+00
  0.00000000E+00  0.00000000E+00  0.00000000E+00
  0.00000000E+00  0.00000000E+00  0.00000000E+00
  0.00000000E+00  0.00000000E+00  0.00000000E+00
  0.00000000E+00  0.00000000E+00  0.00000000E+00
  0.00000000E+00  0.00000000E+00  0.00000000E+00
  0.00000000E+00  0.00000000E+00  0.00000000E+00
  0.00000000E+00  0.00000000E+00  0.00000000E+00
  0.00000000E+00  0.00000000E+00  0.00000000E+00
  0.00000000E+00  0.00000000E+00  0.00000000E+00
  0.00000000E+00  0.00000000E+00  0.00000000E+00
  0.00000000E+00  0.00000000E+00  0.00000000E+00
  0.00000000E+00  0.00000000E+00  0.00000000E+00
  0.00000000E+00  0.00000000E+00  0.00000000E+00
  0.00000000E+00  0.00000000E+00  0.00000000E+00
  0.00000000E+00  0.00000000E+00  0.00000000E+00
  0.00000000E+00  0.00000000E+00  0.00000000E+00
  0.00000000E+00  0.00000000E+00  0.00000000E+00
  0.00000000E+00  0.00000000E+00  0.00000000E+00
  0.00000000E+00  0.00000000E+00  0.00000000E+00
  0.00000000E+00  0.00000000E+00  0.00000000E+00
  0.00000000E+00  0.00000000E+00  0.00000000E+00
  0.00000000E+00  0.00000000E+00  0.00000000E+00
  0.00000000E+00  0.00000000E+00  0.00000000E+00
  0.00000000E+00  0.00000000E+00  0.00000000E+00
  0.00000000E+00  0.00000000E+00  0.00000000E+00
  0.00000000E+00  0.00000000E+00  0.00000000E+00
  0.00000000E+00  0.00000000E+00  0.00000000E+00
  0.00000000E+00  0.00000000E+00  0.00000000E+00
  0.00000000E+00  0.00000000E+00  0.00000000E+00
  0.00000000E+00  0.00000000E+00  0.00000000E+00
  0.00000000E+00  0.00000000E+00  0.00000000E+00
  0.00000000E+00  0.00000000E+00  0.00000000E+00
  0.00000000E+00  0.00000000E+00  0.00000000E+00
  0.00000000E+00  0.00000000E+00  0.00000000E+00
  0.00000000E+00  0.00000000E+00  0.00000000E+00
  0.00000000E+00  0.00000000E+00  0.00000000E+00
  0.00000000E+00  0.00000000E+00  0.00000000E+00
  0.00000000E+00  0.00000000E+00  0.00000000E+00
  0.00000000E+00  0.00000000E+00  0.00000000E+00
  0.00000000E+00  0.00000000E+00  0.00000000E+00
  0.00000000E+00  0.00000000E+00  0.00000000E+00
  0.00000000E+00  0.00000000E+00  0.00000000E+00
  0.00000000E+00  0.00000000E+00  0.00000000E+00
  0.00000000E+00  0.00000000E+00  0.00000000E+00
  0.00000000E+00  0.00000000E+00  0.00000000E+00
  0.00000000E+00  0.00000000E+00  0.00000000E+00
  0.00000000E+00  0.00000000E+00  0.00000000E+00
  0.00000000E+00  0.00000000E+00  0.00000000E+00
  0.00000000E+00  0.00000000E+00  0.00000000E+00
  0.00000000E+00  0.00000000E+00  0.00000000E+00
  0.00000000E+00  0.00000000E+00  0.00000000E+00
  0.00000000E+00  0.00000000E+00  0.00000000E+00
  0.00000000E+00  0.00000000E+00  0.00000000E+00
  0.00000000E+00  0.00000000E+00  0.00000000E+00
  0.00000000E+00  0.00000000E+00  0.00000000E+00
  0.00000000E+00  0.00000000E+00  0.00000000E+00
  0.00000000E+00  0.00000000E+00  0.00000000E+00
  0.00000000E+00  0.00000000E+00  0.00000000E+00
  0.00000000E+00  0.00000000E+00  0.00000000E+00
  0.00000000E+00  0.00000000E+00  0.00000000E+00
  0.00000000E+00  0.00000000E+00  0.00000000E+00
  0.00000000E+00  0.00000000E+00  0.00000000E+00
  0.00000000E+00  0.00000000E+00  0.00000000E+00
  0.00000000E+00  0.00000000E+00  0.00000000E+00
  0.00000000E+00  0.00000000E+00  0.00000000E+00
  0.00000000E+00  0.00000000E+00  0.00000000E+00
  0.00000000E+00  0.00000000E+00  0.00000000E+00
