10.96                                   
   1.00000000000000     
    10.9600000381000005    0.0000000000000000    0.0000000000000000
     5.4800000191000002    9.4916384585000007    0.0000000000000000
     0.0000000000000000    0.0000000000000000   22.0000000000000000
   Pt   Fe   Co   Cu   Ni   H 
    32    13    10    13    12     1
Selective dynamics
Direct
  0.7863925681810511  0.8794069652245481  0.3131047796987452   T   T   T
  0.0436854451321528  0.8798434873329412  0.3105358410988967   T   T   T
  0.2781250176394686  0.3802186931584649  0.3167397951182940   T   T   T
  0.8746500144589477  0.9635805527890148  0.4148376093872682   T   T   T
  0.1163139149948646  0.4621752193745495  0.4211455691538916   T   T   T
  0.1263505785962638  0.9608127361707685  0.4141197067265039   T   T   T
  0.8756033457717853  0.4562289012771142  0.4201118923474239   T   T   T
  0.3735629093644927  0.9598726336268719  0.4150472799576959   T   T   T
  0.8726506261164042  0.2104449761270049  0.4136094090476046   T   T   T
  0.1265655432532739  0.2113871580468548  0.4160257356118621   T   T   T
  0.6250165094728053  0.9588267058198303  0.4168805577374092   T   T   T
  0.8722146856474553  0.7117301003491795  0.4188911558041825   T   T   T
  0.3769773830687411  0.2046448406715946  0.4176814171458331   T   T   T
  0.3784538003927304  0.7137130269994522  0.4163702907756741   T   T   T
  0.6272406609168631  0.4620224287425357  0.4167390087961345   T   T   T
  0.1210644348434223  0.7151701999705496  0.4193791505161109   T   T   T
  0.6262513908674451  0.2083227562805011  0.4154887310807621   T   T   T
  0.5467228275944355  0.3769802123995485  0.3152869441953645   T   T   T
  0.5338181952955101  0.1255962851004951  0.3122912401900768   T   T   T
  0.5522125408244705  0.1229980439735883  0.0492007837818207   F   F   F
  0.1179447475166739  0.4553776451871983  0.1279299605909117   F   F   F
  0.0460188863837667  0.1346642651432629  0.3116555528975267   T   T   T
  0.0331546293162290  0.1349486531119339  0.0377446314227257   F   F   F
  0.1316392841220875  0.9574759255143590  0.1340278734000009   F   F   F
  0.3796181704216871  0.4573047398892195  0.4201117340462271   T   T   T
  0.4566663465124705  0.5492648756265339  0.2193267658181810   F   F   F
  0.6230607237344787  0.7106150820674677  0.4177567824891081   T   T   T
  0.9558082579071581  0.7831430855589829  0.2183892191636332   F   F   F
  0.7974838549337603  0.6229755062584923  0.3172047503094209   T   T   T
  0.2892741072068587  0.6299347323060078  0.3155871409649211   T   T   T
  0.1986792080509545  0.2771687989594724  0.2254811289227305   F   F   F
  0.7045827475186641  0.5523289943798062  0.2213619481181794   F   F   F
  0.0412335140788791  0.6311078410542134  0.3210743733136304   T   T   T
  0.7920397940622550  0.8619624074885976  0.0511947968227275   F   F   F
  0.0526981245086802  0.8624210274643787  0.0444735392454518   F   F   F
  0.0457035805815948  0.6408036659206289  0.0458596178818169   F   F   F
  0.6280262762717825  0.2294732051187083  0.1337968902681794   F   F   F
  0.3825060135975420  0.9534483106544869  0.1327341964000013   F   F   F
  0.0346091305563038  0.3834411198663878  0.3211977211590549   T   T   T
  0.0161929607427993  0.3818764830379777  0.0412025564000018   F   F   F
  0.8704299207406763  0.2168907108715672  0.1317857703409118   F   F   F
  0.9563404382489509  0.5414389604039087  0.2237078816545477   F   F   F
  0.2988926924411391  0.1149943990713900  0.3187426949000607   T   T   T
  0.5416757090731221  0.6268403377214786  0.3198191924210357   T   T   T
  0.2929366193431733  0.1152265724702772  0.0453832930500013   F   F   F
  0.5520103083108907  0.6233459614553212  0.0478800615045429   F   F   F
  0.3057569488876624  0.3802645026968747  0.0468428708363646   F   F   F
  0.6239564555179768  0.9453132092873631  0.1363931434772709   F   F   F
  0.7083597009675202  0.7902410750572741  0.2210134316636356   F   F   F
  0.8605432662291435  0.6969997948958451  0.1321407462181838   F   F   F
  0.6280822250932729  0.4576845886507286  0.1300764273499979   F   F   F
  0.2979485689872671  0.8739923046623818  0.3169293009657614   T   T   T
  0.3062668485040945  0.8731072350821165  0.0445594179636331   F   F   F
  0.6226125853193309  0.7181745901936978  0.1307167480909115   F   F   F
  0.2304623798570589  0.0242330841830594  0.2276022954318151   F   F   F
  0.5428213397594490  0.3783856650780564  0.0401873396772743   F   F   F
  0.3772698501728584  0.2056045922453293  0.1374041287409113   F   F   F
  0.1480591264527078  0.7031483988334202  0.1372085456590924   F   F   F
  0.7035999555239911  0.0531163181998906  0.2207213082318162   F   F   F
  0.7933351156447717  0.1289529811021920  0.3139609967789579   T   T   T
  0.5403063287006281  0.8717850145339793  0.3162821465073566   T   T   T
  0.7916566268092922  0.1278317223843928  0.0406717152136338   F   F   F
  0.5477391611314957  0.8745077200413860  0.0407165425409062   F   F   F
  0.2081864432224165  0.5393639650818542  0.2229058860863660   F   F   F
  0.9479545332625037  0.3025804781289452  0.2228709549181787   F   F   F
  0.8695284713262765  0.9706931983749456  0.1330532267227298   F   F   F
  0.7178726439639220  0.2936926343421362  0.2256009570863640   F   F   F
  0.4565257253224786  0.2958654421023752  0.2224053839000035   F   F   F
  0.8724899802044774  0.4567009542507421  0.1303056939181815   F   F   F
  0.1243640075760553  0.2032220342603352  0.1319550582500000   F   F   F
  0.7873792025498005  0.6247287542742228  0.0440385979227287   F   F   F
  0.2993238400808877  0.6211331967054008  0.0480245963681796   F   F   F
  0.3856511081424543  0.7159506384289642  0.1307995094090941   F   F   F
  0.3847156394135922  0.4515386979644092  0.1311039896954540   F   F   F
  0.7926212178038244  0.3829941143465210  0.3190770636206455   T   T   T
  0.7893358288451608  0.3732859221083231  0.0438327165318171   F   F   F
  0.9536690361912719  0.0590088832448572  0.2213364501545456   F   F   F
  0.4606923424526741  0.7960359873835756  0.2256473434863651   F   F   F
  0.2223569724678214  0.7974698432936549  0.2249389915045441   F   F   F
  0.4608302578015682  0.0261812332914388  0.2241487908681847   F   F   F
  0.2161044805994350  0.5494161526816688  0.4609158940378981   T   T   T
 
  0.00000000E+00  0.00000000E+00  0.00000000E+00
  0.00000000E+00  0.00000000E+00  0.00000000E+00
  0.00000000E+00  0.00000000E+00  0.00000000E+00
  0.00000000E+00  0.00000000E+00  0.00000000E+00
  0.00000000E+00  0.00000000E+00  0.00000000E+00
  0.00000000E+00  0.00000000E+00  0.00000000E+00
  0.00000000E+00  0.00000000E+00  0.00000000E+00
  0.00000000E+00  0.00000000E+00  0.00000000E+00
  0.00000000E+00  0.00000000E+00  0.00000000E+00
  0.00000000E+00  0.00000000E+00  0.00000000E+00
  0.00000000E+00  0.00000000E+00  0.00000000E+00
  0.00000000E+00  0.00000000E+00  0.00000000E+00
  0.00000000E+00  0.00000000E+00  0.00000000E+00
  0.00000000E+00  0.00000000E+00  0.00000000E+00
  0.00000000E+00  0.00000000E+00  0.00000000E+00
  0.00000000E+00  0.00000000E+00  0.00000000E+00
  0.00000000E+00  0.00000000E+00  0.00000000E+00
  0.00000000E+00  0.00000000E+00  0.00000000E+00
  0.00000000E+00  0.00000000E+00  0.00000000E+00
  0.00000000E+00  0.00000000E+00  0.00000000E+00
  0.00000000E+00  0.00000000E+00  0.00000000E+00
  0.00000000E+00  0.00000000E+00  0.00000000E+00
  0.00000000E+00  0.00000000E+00  0.00000000E+00
  0.00000000E+00  0.00000000E+00  0.00000000E+00
  0.00000000E+00  0.00000000E+00  0.00000000E+00
  0.00000000E+00  0.00000000E+00  0.00000000E+00
  0.00000000E+00  0.00000000E+00  0.00000000E+00
  0.00000000E+00  0.00000000E+00  0.00000000E+00
  0.00000000E+00  0.00000000E+00  0.00000000E+00
  0.00000000E+00  0.00000000E+00  0.00000000E+00
  0.00000000E+00  0.00000000E+00  0.00000000E+00
  0.00000000E+00  0.00000000E+00  0.00000000E+00
  0.00000000E+00  0.00000000E+00  0.00000000E+00
  0.00000000E+00  0.00000000E+00  0.00000000E+00
  0.00000000E+00  0.00000000E+00  0.00000000E+00
  0.00000000E+00  0.00000000E+00  0.00000000E+00
  0.00000000E+00  0.00000000E+00  0.00000000E+00
  0.00000000E+00  0.00000000E+00  0.00000000E+00
  0.00000000E+00  0.00000000E+00  0.00000000E+00
  0.00000000E+00  0.00000000E+00  0.00000000E+00
  0.00000000E+00  0.00000000E+00  0.00000000E+00
  0.00000000E+00  0.00000000E+00  0.00000000E+00
  0.00000000E+00  0.00000000E+00  0.00000000E+00
  0.00000000E+00  0.00000000E+00  0.00000000E+00
  0.00000000E+00  0.00000000E+00  0.00000000E+00
  0.00000000E+00  0.00000000E+00  0.00000000E+00
  0.00000000E+00  0.00000000E+00  0.00000000E+00
  0.00000000E+00  0.00000000E+00  0.00000000E+00
  0.00000000E+00  0.00000000E+00  0.00000000E+00
  0.00000000E+00  0.00000000E+00  0.00000000E+00
  0.00000000E+00  0.00000000E+00  0.00000000E+00
  0.00000000E+00  0.00000000E+00  0.00000000E+00
  0.00000000E+00  0.00000000E+00  0.00000000E+00
  0.00000000E+00  0.00000000E+00  0.00000000E+00
  0.00000000E+00  0.00000000E+00  0.00000000E+00
  0.00000000E+00  0.00000000E+00  0.00000000E+00
  0.00000000E+00  0.00000000E+00  0.00000000E+00
  0.00000000E+00  0.00000000E+00  0.00000000E+00
  0.00000000E+00  0.00000000E+00  0.00000000E+00
  0.00000000E+00  0.00000000E+00  0.00000000E+00
  0.00000000E+00  0.00000000E+00  0.00000000E+00
  0.00000000E+00  0.00000000E+00  0.00000000E+00
  0.00000000E+00  0.00000000E+00  0.00000000E+00
  0.00000000E+00  0.00000000E+00  0.00000000E+00
  0.00000000E+00  0.00000000E+00  0.00000000E+00
  0.00000000E+00  0.00000000E+00  0.00000000E+00
  0.00000000E+00  0.00000000E+00  0.00000000E+00
  0.00000000E+00  0.00000000E+00  0.00000000E+00
  0.00000000E+00  0.00000000E+00  0.00000000E+00
  0.00000000E+00  0.00000000E+00  0.00000000E+00
  0.00000000E+00  0.00000000E+00  0.00000000E+00
  0.00000000E+00  0.00000000E+00  0.00000000E+00
  0.00000000E+00  0.00000000E+00  0.00000000E+00
  0.00000000E+00  0.00000000E+00  0.00000000E+00
  0.00000000E+00  0.00000000E+00  0.00000000E+00
  0.00000000E+00  0.00000000E+00  0.00000000E+00
  0.00000000E+00  0.00000000E+00  0.00000000E+00
  0.00000000E+00  0.00000000E+00  0.00000000E+00
  0.00000000E+00  0.00000000E+00  0.00000000E+00
  0.00000000E+00  0.00000000E+00  0.00000000E+00
  0.00000000E+00  0.00000000E+00  0.00000000E+00
