10.96                                   
   1.00000000000000     
    10.9600000381000005    0.0000000000000000    0.0000000000000000
     5.4800000191000002    9.4916384585000007    0.0000000000000000
     0.0000000000000000    0.0000000000000000   22.0000000000000000
   Pt   Fe   Co   Cu   Ni   H 
    32    13    10    13    12     1
Selective dynamics
Direct
  0.7863614355051088  0.8798519680139241  0.3131482740040738   T   T   T
  0.0438859290069973  0.8807638371901644  0.3101382504033396   T   T   T
  0.2793671973692186  0.3807648610181931  0.3163970666202394   T   T   T
  0.8753885965759594  0.9640878365785862  0.4148643332258855   T   T   T
  0.1175257519020098  0.4649477971189734  0.4195941275932276   T   T   T
  0.1253334041359620  0.9621680494571491  0.4140896698725319   T   T   T
  0.8764118063563520  0.4568413771858246  0.4201935843021273   T   T   T
  0.3744576761377413  0.9596576668529799  0.4145774233011006   T   T   T
  0.8731352373588531  0.2110552149637448  0.4139696352315371   T   T   T
  0.1276335840534453  0.2118389974934531  0.4159324806954243   T   T   T
  0.6250660113246547  0.9592227368968248  0.4165834140323165   T   T   T
  0.8738939022721192  0.7114320684938753  0.4193081893128599   T   T   T
  0.3759427652057082  0.2081185392102607  0.4177375985037298   T   T   T
  0.3764946729122625  0.7154635889877919  0.4202889635230627   T   T   T
  0.6309533458653036  0.4604421793978742  0.4162331061479448   T   T   T
  0.1191681328937771  0.7131795681713802  0.4172293548716138   T   T   T
  0.6268633793704370  0.2078525434092339  0.4154762129511030   T   T   T
  0.5469917169556681  0.3770063633059491  0.3154021552383069   T   T   T
  0.5338448104516038  0.1255335116722492  0.3123115202336826   T   T   T
  0.5522125408244705  0.1229980439735883  0.0492007837818207   F   F   F
  0.1179447475166739  0.4553776451871983  0.1279299605909117   F   F   F
  0.0464048503407280  0.1353014939138613  0.3117144268901152   T   T   T
  0.0331546293162290  0.1349486531119339  0.0377446314227257   F   F   F
  0.1316392841220875  0.9574759255143590  0.1340278734000009   F   F   F
  0.3729717898692049  0.4584464440234071  0.4212148008512164   T   T   T
  0.4566663465124705  0.5492648756265339  0.2193267658181810   F   F   F
  0.6235354165583743  0.7115045552300886  0.4175455463536183   T   T   T
  0.9558082579071581  0.7831430855589829  0.2183892191636332   F   F   F
  0.7978889814643527  0.6228978981317952  0.3172246951709516   T   T   T
  0.2915009512365165  0.6313850200117450  0.3159305796962248   T   T   T
  0.1986792080509545  0.2771687989594724  0.2254811289227305   F   F   F
  0.7045827475186641  0.5523289943798062  0.2213619481181794   F   F   F
  0.0413716340922842  0.6316187284289656  0.3202205604189457   T   T   T
  0.7920397940622550  0.8619624074885976  0.0511947968227275   F   F   F
  0.0526981245086802  0.8624210274643787  0.0444735392454518   F   F   F
  0.0457035805815948  0.6408036659206289  0.0458596178818169   F   F   F
  0.6280262762717825  0.2294732051187083  0.1337968902681794   F   F   F
  0.3825060135975420  0.9534483106544869  0.1327341964000013   F   F   F
  0.0355630363218888  0.3835577203315727  0.3214055887865850   T   T   T
  0.0161929607427993  0.3818764830379777  0.0412025564000018   F   F   F
  0.8704299207406763  0.2168907108715672  0.1317857703409118   F   F   F
  0.9563404382489509  0.5414389604039087  0.2237078816545477   F   F   F
  0.2989962342212336  0.1157638420850152  0.3189187040271598   T   T   T
  0.5408985009479010  0.6277089108418402  0.3203794436221308   T   T   T
  0.2929366193431733  0.1152265724702772  0.0453832930500013   F   F   F
  0.5520103083108907  0.6233459614553212  0.0478800615045429   F   F   F
  0.3057569488876624  0.3802645026968747  0.0468428708363646   F   F   F
  0.6239564555179768  0.9453132092873631  0.1363931434772709   F   F   F
  0.7083597009675202  0.7902410750572741  0.2210134316636356   F   F   F
  0.8605432662291435  0.6969997948958451  0.1321407462181838   F   F   F
  0.6280822250932729  0.4576845886507286  0.1300764273499979   F   F   F
  0.2974026107466583  0.8739688336294766  0.3169397576314408   T   T   T
  0.3062668485040945  0.8731072350821165  0.0445594179636331   F   F   F
  0.6226125853193309  0.7181745901936978  0.1307167480909115   F   F   F
  0.2304623798570589  0.0242330841830594  0.2276022954318151   F   F   F
  0.5428213397594490  0.3783856650780564  0.0401873396772743   F   F   F
  0.3772698501728584  0.2056045922453293  0.1374041287409113   F   F   F
  0.1480591264527078  0.7031483988334202  0.1372085456590924   F   F   F
  0.7035999555239911  0.0531163181998906  0.2207213082318162   F   F   F
  0.7936523295997390  0.1290274114607076  0.3140047304021804   T   T   T
  0.5404366202438403  0.8714552187614243  0.3160134994779903   T   T   T
  0.7916566268092922  0.1278317223843928  0.0406717152136338   F   F   F
  0.5477391611314957  0.8745077200413860  0.0407165425409062   F   F   F
  0.2081864432224165  0.5393639650818542  0.2229058860863660   F   F   F
  0.9479545332625037  0.3025804781289452  0.2228709549181787   F   F   F
  0.8695284713262765  0.9706931983749456  0.1330532267227298   F   F   F
  0.7178726439639220  0.2936926343421362  0.2256009570863640   F   F   F
  0.4565257253224786  0.2958654421023752  0.2224053839000035   F   F   F
  0.8724899802044774  0.4567009542507421  0.1303056939181815   F   F   F
  0.1243640075760553  0.2032220342603352  0.1319550582500000   F   F   F
  0.7873792025498005  0.6247287542742228  0.0440385979227287   F   F   F
  0.2993238400808877  0.6211331967054008  0.0480245963681796   F   F   F
  0.3856511081424543  0.7159506384289642  0.1307995094090941   F   F   F
  0.3847156394135922  0.4515386979644092  0.1311039896954540   F   F   F
  0.7927638861187122  0.3830506627503270  0.3189425019512242   T   T   T
  0.7893358288451608  0.3732859221083231  0.0438327165318171   F   F   F
  0.9536690361912719  0.0590088832448572  0.2213364501545456   F   F   F
  0.4606923424526741  0.7960359873835756  0.2256473434863651   F   F   F
  0.2223569724678214  0.7974698432936549  0.2249389915045441   F   F   F
  0.4608302578015682  0.0261812332914388  0.2241487908681847   F   F   F
  0.3798924398056960  0.5813014154563132  0.4676343213893818   T   T   T
 
  0.00000000E+00  0.00000000E+00  0.00000000E+00
  0.00000000E+00  0.00000000E+00  0.00000000E+00
  0.00000000E+00  0.00000000E+00  0.00000000E+00
  0.00000000E+00  0.00000000E+00  0.00000000E+00
  0.00000000E+00  0.00000000E+00  0.00000000E+00
  0.00000000E+00  0.00000000E+00  0.00000000E+00
  0.00000000E+00  0.00000000E+00  0.00000000E+00
  0.00000000E+00  0.00000000E+00  0.00000000E+00
  0.00000000E+00  0.00000000E+00  0.00000000E+00
  0.00000000E+00  0.00000000E+00  0.00000000E+00
  0.00000000E+00  0.00000000E+00  0.00000000E+00
  0.00000000E+00  0.00000000E+00  0.00000000E+00
  0.00000000E+00  0.00000000E+00  0.00000000E+00
  0.00000000E+00  0.00000000E+00  0.00000000E+00
  0.00000000E+00  0.00000000E+00  0.00000000E+00
  0.00000000E+00  0.00000000E+00  0.00000000E+00
  0.00000000E+00  0.00000000E+00  0.00000000E+00
  0.00000000E+00  0.00000000E+00  0.00000000E+00
  0.00000000E+00  0.00000000E+00  0.00000000E+00
  0.00000000E+00  0.00000000E+00  0.00000000E+00
  0.00000000E+00  0.00000000E+00  0.00000000E+00
  0.00000000E+00  0.00000000E+00  0.00000000E+00
  0.00000000E+00  0.00000000E+00  0.00000000E+00
  0.00000000E+00  0.00000000E+00  0.00000000E+00
  0.00000000E+00  0.00000000E+00  0.00000000E+00
  0.00000000E+00  0.00000000E+00  0.00000000E+00
  0.00000000E+00  0.00000000E+00  0.00000000E+00
  0.00000000E+00  0.00000000E+00  0.00000000E+00
  0.00000000E+00  0.00000000E+00  0.00000000E+00
  0.00000000E+00  0.00000000E+00  0.00000000E+00
  0.00000000E+00  0.00000000E+00  0.00000000E+00
  0.00000000E+00  0.00000000E+00  0.00000000E+00
  0.00000000E+00  0.00000000E+00  0.00000000E+00
  0.00000000E+00  0.00000000E+00  0.00000000E+00
  0.00000000E+00  0.00000000E+00  0.00000000E+00
  0.00000000E+00  0.00000000E+00  0.00000000E+00
  0.00000000E+00  0.00000000E+00  0.00000000E+00
  0.00000000E+00  0.00000000E+00  0.00000000E+00
  0.00000000E+00  0.00000000E+00  0.00000000E+00
  0.00000000E+00  0.00000000E+00  0.00000000E+00
  0.00000000E+00  0.00000000E+00  0.00000000E+00
  0.00000000E+00  0.00000000E+00  0.00000000E+00
  0.00000000E+00  0.00000000E+00  0.00000000E+00
  0.00000000E+00  0.00000000E+00  0.00000000E+00
  0.00000000E+00  0.00000000E+00  0.00000000E+00
  0.00000000E+00  0.00000000E+00  0.00000000E+00
  0.00000000E+00  0.00000000E+00  0.00000000E+00
  0.00000000E+00  0.00000000E+00  0.00000000E+00
  0.00000000E+00  0.00000000E+00  0.00000000E+00
  0.00000000E+00  0.00000000E+00  0.00000000E+00
  0.00000000E+00  0.00000000E+00  0.00000000E+00
  0.00000000E+00  0.00000000E+00  0.00000000E+00
  0.00000000E+00  0.00000000E+00  0.00000000E+00
  0.00000000E+00  0.00000000E+00  0.00000000E+00
  0.00000000E+00  0.00000000E+00  0.00000000E+00
  0.00000000E+00  0.00000000E+00  0.00000000E+00
  0.00000000E+00  0.00000000E+00  0.00000000E+00
  0.00000000E+00  0.00000000E+00  0.00000000E+00
  0.00000000E+00  0.00000000E+00  0.00000000E+00
  0.00000000E+00  0.00000000E+00  0.00000000E+00
  0.00000000E+00  0.00000000E+00  0.00000000E+00
  0.00000000E+00  0.00000000E+00  0.00000000E+00
  0.00000000E+00  0.00000000E+00  0.00000000E+00
  0.00000000E+00  0.00000000E+00  0.00000000E+00
  0.00000000E+00  0.00000000E+00  0.00000000E+00
  0.00000000E+00  0.00000000E+00  0.00000000E+00
  0.00000000E+00  0.00000000E+00  0.00000000E+00
  0.00000000E+00  0.00000000E+00  0.00000000E+00
  0.00000000E+00  0.00000000E+00  0.00000000E+00
  0.00000000E+00  0.00000000E+00  0.00000000E+00
  0.00000000E+00  0.00000000E+00  0.00000000E+00
  0.00000000E+00  0.00000000E+00  0.00000000E+00
  0.00000000E+00  0.00000000E+00  0.00000000E+00
  0.00000000E+00  0.00000000E+00  0.00000000E+00
  0.00000000E+00  0.00000000E+00  0.00000000E+00
  0.00000000E+00  0.00000000E+00  0.00000000E+00
  0.00000000E+00  0.00000000E+00  0.00000000E+00
  0.00000000E+00  0.00000000E+00  0.00000000E+00
  0.00000000E+00  0.00000000E+00  0.00000000E+00
  0.00000000E+00  0.00000000E+00  0.00000000E+00
  0.00000000E+00  0.00000000E+00  0.00000000E+00
