10.46                                   
   1.00000000000000     
    10.4600000381000005    0.0000000000000000    0.0000000000000000
     5.2300000191000002    9.0586257565999997    0.0000000000000000
     0.0000000000000000    0.0000000000000000   22.0000000000000000
   Pt   Fe   Co   Cu   Ni   H 
    32    13    10    13    12     1
Selective dynamics
Direct
  0.7870464893000957  0.8781791498013973  0.3180910949045455   F   F   F
  0.0425019404396778  0.8813398437376847  0.3174517462454531   F   F   F
  0.2779276434647144  0.3810274164803857  0.3214911073136335   F   F   F
  0.8742128886355047  0.9615690596174176  0.4262265146954576   F   F   F
  0.1218984705850730  0.4594703402409053  0.4341665205181826   F   F   F
  0.1248976313632681  0.9616788615704692  0.4233304053636360   F   F   F
  0.8746123305040285  0.4595473344030125  0.4293006974136375   F   F   F
  0.3747019247171863  0.9599784338329869  0.4218951923318173   F   F   F
  0.8743244271195110  0.2109270175123257  0.4213891044045468   F   F   F
  0.1255764287643402  0.2104035382642166  0.4242405218136369   F   F   F
  0.6251126109213274  0.9602372151827154  0.4265264663772754   F   F   F
  0.8731874589217625  0.7105163216518378  0.4275164402136369   F   F   F
  0.3758079120743005  0.2071389490876001  0.4258910481590874   F   F   F
  0.3766917549165711  0.7127350601161524  0.4238548068681851   F   F   F
  0.6265127980545913  0.4609090277582126  0.4238160943454545   F   F   F
  0.1229965609416439  0.7137461597957397  0.4318312858000013   F   F   F
  0.6255704191127336  0.2096503445587530  0.4235314194590885   F   F   F
  0.5464623024360193  0.3761157240564472  0.3182606986227299   F   F   F
  0.5344410214914888  0.1244725672962588  0.3155448655818205   F   F   F
  0.5463555366722659  0.1234644042320809  0.0380197407818201   F   F   F
  0.1212406355885420  0.4603947908281114  0.1271502081727292   F   F   F
  0.0423840138238560  0.1364051339354333  0.3143076046999980   F   F   F
  0.0428389108519767  0.1298145715251806  0.0317328682500033   F   F   F
  0.1301938677345404  0.9582784145570145  0.1312468517272762   F   F   F
  0.3782306349259699  0.4593838775123302  0.4329333956272734   F   F   F
  0.4540328858898093  0.5454509107410743  0.2187083565727264   F   F   F
  0.6237150465864048  0.7105453419256662  0.4253415224818156   F   F   F
  0.9563613465427778  0.7904679018981327  0.2212711332454518   F   F   F
  0.7940940430771661  0.6213063599408954  0.3193180932909101   F   F   F
  0.2913196253003179  0.6302177234268171  0.3193379145318147   F   F   F
  0.2029926352731195  0.2819160129492460  0.2253742575909072   F   F   F
  0.7072898954016935  0.5486203295548577  0.2205217376909090   F   F   F
  0.0409019800867085  0.6294037241516364  0.3276645156045461   F   F   F
  0.7977582256051079  0.8618987641708742  0.0403945815499966   F   F   F
  0.0556446370223256  0.8665462419264642  0.0360495583181830   F   F   F
  0.0467868659125017  0.6273110610690296  0.0349611334000031   F   F   F
  0.6268079290751558  0.2205144568031869  0.1279874704272714   F   F   F
  0.3824299677859813  0.9550771594351914  0.1293430731136382   F   F   F
  0.0353898394022778  0.3827031189663828  0.3260019233545464   F   F   F
  0.0322869523519600  0.3824189837598766  0.0357072738636361   F   F   F
  0.8718083387422340  0.2155041916681100  0.1275053200954517   F   F   F
  0.9551923697383700  0.5450551850541601  0.2237018674999973   F   F   F
  0.2956053776428504  0.1160934550622983  0.3218281390136397   F   F   F
  0.5403118783889056  0.6299903287253130  0.3220552049318215   F   F   F
  0.2950173595978711  0.1200886714861156  0.0375064116590877   F   F   F
  0.5475598048847914  0.6253949978198818  0.0421816458272701   F   F   F
  0.2945030729956244  0.3799106327129778  0.0369388269681821   F   F   F
  0.6254732335659057  0.9512088976103286  0.1314671777590917   F   F   F
  0.7062955093175702  0.7947981595502327  0.2196547961772737   F   F   F
  0.8663903657623848  0.7066093915334122  0.1280570884590944   F   F   F
  0.6260467991886856  0.4606603453796083  0.1263164780090875   F   F   F
  0.2979094394712121  0.8754196343327507  0.3177040178499979   F   F   F
  0.3052443792951109  0.8677867716383574  0.0391308983727257   F   F   F
  0.6272703420228964  0.7138141950492667  0.1276925297318172   F   F   F
  0.2234256011540126  0.0289588899738860  0.2271318947636374   F   F   F
  0.5432742054046216  0.3804519971132478  0.0330732290090907   F   F   F
  0.3785909415057347  0.2051562216648577  0.1314700547818148   F   F   F
  0.1350161306793751  0.7053169766114777  0.1306768704272727   F   F   F
  0.7050897259590414  0.0499878032791088  0.2204400288863653   F   F   F
  0.7921395278283256  0.1294521449068142  0.3173758940772728   F   F   F
  0.5379082370727701  0.8730719499519779  0.3172214955136354   F   F   F
  0.7961297016593818  0.1231870354603117  0.0328180932681832   F   F   F
  0.5460691330525478  0.8700680657833288  0.0347715803136381   F   F   F
  0.2070546213865541  0.5423754641392833  0.2243282066681829   F   F   F
  0.9518391764879297  0.2957259705588555  0.2207862691727271   F   F   F
  0.8717417800869072  0.9631728889829745  0.1282003082863667   F   F   F
  0.7139194298393150  0.2891101091125066  0.2228863708681814   F   F   F
  0.4574638451757664  0.2907874154068892  0.2206832389863607   F   F   F
  0.8752232243195124  0.4564829535856703  0.1268246701363651   F   F   F
  0.1275845306887575  0.2075320190957513  0.1280611435136336   F   F   F
  0.7923383526104573  0.6224713498503576  0.0390182938136334   F   F   F
  0.2981210247439137  0.6250642790022098  0.0405325909590886   F   F   F
  0.3856345194526227  0.7104295515035659  0.1282660679000003   F   F   F
  0.3824089299364672  0.4515722852905810  0.1254473441363615   F   F   F
  0.7921371231107344  0.3779541895530372  0.3207407269227289   F   F   F
  0.7908434017921309  0.3772889937317387  0.0379094772499968   F   F   F
  0.9558483290959217  0.0518719835464694  0.2213215703227291   F   F   F
  0.4578819920548582  0.7970605714602357  0.2241192740363616   F   F   F
  0.2121545357347188  0.7980517207627074  0.2244880538272724   F   F   F
  0.4623873984073086  0.0312412715575334  0.2218168949681782   F   F   F
  0.2176071158169960  0.5510708938122235  0.4797462309181803   T   T   T
 
  0.00000000E+00  0.00000000E+00  0.00000000E+00
  0.00000000E+00  0.00000000E+00  0.00000000E+00
  0.00000000E+00  0.00000000E+00  0.00000000E+00
  0.00000000E+00  0.00000000E+00  0.00000000E+00
  0.00000000E+00  0.00000000E+00  0.00000000E+00
  0.00000000E+00  0.00000000E+00  0.00000000E+00
  0.00000000E+00  0.00000000E+00  0.00000000E+00
  0.00000000E+00  0.00000000E+00  0.00000000E+00
  0.00000000E+00  0.00000000E+00  0.00000000E+00
  0.00000000E+00  0.00000000E+00  0.00000000E+00
  0.00000000E+00  0.00000000E+00  0.00000000E+00
  0.00000000E+00  0.00000000E+00  0.00000000E+00
  0.00000000E+00  0.00000000E+00  0.00000000E+00
  0.00000000E+00  0.00000000E+00  0.00000000E+00
  0.00000000E+00  0.00000000E+00  0.00000000E+00
  0.00000000E+00  0.00000000E+00  0.00000000E+00
  0.00000000E+00  0.00000000E+00  0.00000000E+00
  0.00000000E+00  0.00000000E+00  0.00000000E+00
  0.00000000E+00  0.00000000E+00  0.00000000E+00
  0.00000000E+00  0.00000000E+00  0.00000000E+00
  0.00000000E+00  0.00000000E+00  0.00000000E+00
  0.00000000E+00  0.00000000E+00  0.00000000E+00
  0.00000000E+00  0.00000000E+00  0.00000000E+00
  0.00000000E+00  0.00000000E+00  0.00000000E+00
  0.00000000E+00  0.00000000E+00  0.00000000E+00
  0.00000000E+00  0.00000000E+00  0.00000000E+00
  0.00000000E+00  0.00000000E+00  0.00000000E+00
  0.00000000E+00  0.00000000E+00  0.00000000E+00
  0.00000000E+00  0.00000000E+00  0.00000000E+00
  0.00000000E+00  0.00000000E+00  0.00000000E+00
  0.00000000E+00  0.00000000E+00  0.00000000E+00
  0.00000000E+00  0.00000000E+00  0.00000000E+00
  0.00000000E+00  0.00000000E+00  0.00000000E+00
  0.00000000E+00  0.00000000E+00  0.00000000E+00
  0.00000000E+00  0.00000000E+00  0.00000000E+00
  0.00000000E+00  0.00000000E+00  0.00000000E+00
  0.00000000E+00  0.00000000E+00  0.00000000E+00
  0.00000000E+00  0.00000000E+00  0.00000000E+00
  0.00000000E+00  0.00000000E+00  0.00000000E+00
  0.00000000E+00  0.00000000E+00  0.00000000E+00
  0.00000000E+00  0.00000000E+00  0.00000000E+00
  0.00000000E+00  0.00000000E+00  0.00000000E+00
  0.00000000E+00  0.00000000E+00  0.00000000E+00
  0.00000000E+00  0.00000000E+00  0.00000000E+00
  0.00000000E+00  0.00000000E+00  0.00000000E+00
  0.00000000E+00  0.00000000E+00  0.00000000E+00
  0.00000000E+00  0.00000000E+00  0.00000000E+00
  0.00000000E+00  0.00000000E+00  0.00000000E+00
  0.00000000E+00  0.00000000E+00  0.00000000E+00
  0.00000000E+00  0.00000000E+00  0.00000000E+00
  0.00000000E+00  0.00000000E+00  0.00000000E+00
  0.00000000E+00  0.00000000E+00  0.00000000E+00
  0.00000000E+00  0.00000000E+00  0.00000000E+00
  0.00000000E+00  0.00000000E+00  0.00000000E+00
  0.00000000E+00  0.00000000E+00  0.00000000E+00
  0.00000000E+00  0.00000000E+00  0.00000000E+00
  0.00000000E+00  0.00000000E+00  0.00000000E+00
  0.00000000E+00  0.00000000E+00  0.00000000E+00
  0.00000000E+00  0.00000000E+00  0.00000000E+00
  0.00000000E+00  0.00000000E+00  0.00000000E+00
  0.00000000E+00  0.00000000E+00  0.00000000E+00
  0.00000000E+00  0.00000000E+00  0.00000000E+00
  0.00000000E+00  0.00000000E+00  0.00000000E+00
  0.00000000E+00  0.00000000E+00  0.00000000E+00
  0.00000000E+00  0.00000000E+00  0.00000000E+00
  0.00000000E+00  0.00000000E+00  0.00000000E+00
  0.00000000E+00  0.00000000E+00  0.00000000E+00
  0.00000000E+00  0.00000000E+00  0.00000000E+00
  0.00000000E+00  0.00000000E+00  0.00000000E+00
  0.00000000E+00  0.00000000E+00  0.00000000E+00
  0.00000000E+00  0.00000000E+00  0.00000000E+00
  0.00000000E+00  0.00000000E+00  0.00000000E+00
  0.00000000E+00  0.00000000E+00  0.00000000E+00
  0.00000000E+00  0.00000000E+00  0.00000000E+00
  0.00000000E+00  0.00000000E+00  0.00000000E+00
  0.00000000E+00  0.00000000E+00  0.00000000E+00
  0.00000000E+00  0.00000000E+00  0.00000000E+00
  0.00000000E+00  0.00000000E+00  0.00000000E+00
  0.00000000E+00  0.00000000E+00  0.00000000E+00
  0.00000000E+00  0.00000000E+00  0.00000000E+00
  0.00000000E+00  0.00000000E+00  0.00000000E+00
