10.56                                   
   1.00000000000000     
    10.5600004195999997    0.0000000000000000    0.0000000000000000
     5.2800002097999998    9.1452286273999999    0.0000000000000000
     0.0000000000000000    0.0000000000000000   22.0000000000000000
   Pt   Fe   Co   Cu   Ni
    32    13    10    13    12
Direct
  0.7866955608705455  0.8792044975121758  0.3175808625878520
  0.0418308564857226  0.8830759499196502  0.3158791456068304
  0.2789186495124180  0.3812235485499275  0.3197460385463542
  0.8737165499545997  0.9621321433744678  0.4245676320617704
  0.1214275202434205  0.4624754585335132  0.4280095400050535
  0.1240179580814707  0.9615625048004561  0.4218278807601187
  0.8734751351958615  0.4600962361380234  0.4266690346097864
  0.3740907078762025  0.9601775316192104  0.4204861524722942
  0.8733090230011947  0.2114037980188913  0.4206039990110941
  0.1248815315729999  0.2110912147065346  0.4224017627726728
  0.6239527528920046  0.9610701240522634  0.4239794270420173
  0.8735573264723734  0.7110750306028916  0.4267115688478330
  0.3740744316750741  0.2094355836928070  0.4250190515285985
  0.3747736242329639  0.7123878828839542  0.4243718634276460
  0.6250233071194520  0.4615668075608913  0.4228434414042465
  0.1235535120068129  0.7112530855774848  0.4266143729385040
  0.6244071883554327  0.2107178540197893  0.4219107611887854
  0.5480331280459114  0.3760749439603601  0.3172115450582432
  0.5339200346521665  0.1248316745336111  0.3149471333925754
  0.5470002567309411  0.1235332521918851  0.0399417999792641
  0.1208089481838826  0.4601783015997043  0.1280394984827537
  0.0429215414748025  0.1371190363105959  0.3139924551932819
  0.0424414900737916  0.1302099981135529  0.0329802953695375
  0.1304832192218990  0.9579853651904472  0.1318324513652442
  0.3739378913464741  0.4616784405866258  0.4269096073707236
  0.4545409546924842  0.5457192756245021  0.2188518202987367
  0.6222270952484268  0.7115633672883623  0.4241398446441191
  0.9557150112780803  0.7901309279847157  0.2210448635643216
  0.7936456872174327  0.6228807728370108  0.3191411487033626
  0.2915147773321587  0.6314372181231120  0.3185821011048740
  0.2026302282532692  0.2805717472662115  0.2254649220963286
  0.7064516142076765  0.5493905794579688  0.2207507679886420
  0.0400757068763293  0.6313466213986089  0.3256202375890569
  0.7973180911857300  0.8616265572046822  0.0420760910781761
  0.0560985910251621  0.8657185943726389  0.0377408024139789
  0.0464128728296122  0.6281990126391532  0.0369911384080026
  0.6273755757357057  0.2222416784154088  0.1287505962321819
  0.3821141315825324  0.9550040284741640  0.1298830475232643
  0.0352966908963618  0.3839556480413341  0.3245221470782765
  0.0311405267505630  0.3816759960279116  0.0375046088689482
  0.8722404389414802  0.2153943248380508  0.1282949969568862
  0.9547121146412580  0.5451880757532641  0.2238905465224089
  0.2963477552667665  0.1159381207168453  0.3214123985237181
  0.5397901687438148  0.6304762615550641  0.3223206516584783
  0.2952537777573352  0.1193869715977776  0.0394092290051724
  0.5482511333460868  0.6253176515919384  0.0436557828226837
  0.2955313611129770  0.3794825008886505  0.0388921565765087
  0.6254873592740272  0.9499576153305589  0.1320861515426503
  0.7063418941376099  0.7943482474531584  0.2201040810409905
  0.8657230809026896  0.7055915708183955  0.1288086150341889
  0.6261967559753983  0.4601083651772431  0.1271035316941006
  0.2974994334049239  0.8757804131260595  0.3179488423833239
  0.3058183792095300  0.8681273535779789  0.0402965921580058
  0.6267113460396334  0.7146527937796420  0.1282718373779367
  0.2238985663360460  0.0282395707652511  0.2273103066600564
  0.5426930146743730  0.3810225683391800  0.0346170130491015
  0.3782499856636635  0.2053095451198300  0.1325912588926681
  0.1361840205673691  0.7049738332520920  0.1317829863304705
  0.7048694108175633  0.0502839582141930  0.2203633218762522
  0.7924544449592754  0.1300869471321136  0.3168798477854691
  0.5378510221786829  0.8733305506119454  0.3167983874264148
  0.7965506180300537  0.1231154660588082  0.0345346489215057
  0.5461463374709618  0.8704875427066201  0.0358963983795519
  0.2072223479365503  0.5428206522703709  0.2241705479812726
  0.9515132437925310  0.2967218890121097  0.2212922910368358
  0.8718576990596274  0.9638570180222641  0.1289765751150571
  0.7142109858861703  0.2900443576212550  0.2233456813423590
  0.4576441343993998  0.2914717494979414  0.2208305283948577
  0.8758100826512220  0.4565068959116802  0.1279466825133640
  0.1276916528003058  0.2069238958546323  0.1287633622288855
  0.7922909547094094  0.6217683887307786  0.0402482254018294
  0.2978485906329956  0.6254074402968374  0.0420896375614645
  0.3856750788570704  0.7114654717231881  0.1289187271216785
  0.3820764845374152  0.4516090485206886  0.1264952625703708
  0.7925069304056553  0.3792461951626670  0.3203221183388076
  0.7909247997102078  0.3772595911578204  0.0394562840913370
  0.9555996101377208  0.0529344377675856  0.2214324969807444
  0.4575573979138599  0.7971559299409201  0.2244088666744103
  0.2131500369791654  0.7976872161537959  0.2245790410596954
  0.4623985897492356  0.0302163017453282  0.2220026953531440
 
  0.00000000E+00  0.00000000E+00  0.00000000E+00
  0.00000000E+00  0.00000000E+00  0.00000000E+00
  0.00000000E+00  0.00000000E+00  0.00000000E+00
  0.00000000E+00  0.00000000E+00  0.00000000E+00
  0.00000000E+00  0.00000000E+00  0.00000000E+00
  0.00000000E+00  0.00000000E+00  0.00000000E+00
  0.00000000E+00  0.00000000E+00  0.00000000E+00
  0.00000000E+00  0.00000000E+00  0.00000000E+00
  0.00000000E+00  0.00000000E+00  0.00000000E+00
  0.00000000E+00  0.00000000E+00  0.00000000E+00
  0.00000000E+00  0.00000000E+00  0.00000000E+00
  0.00000000E+00  0.00000000E+00  0.00000000E+00
  0.00000000E+00  0.00000000E+00  0.00000000E+00
  0.00000000E+00  0.00000000E+00  0.00000000E+00
  0.00000000E+00  0.00000000E+00  0.00000000E+00
  0.00000000E+00  0.00000000E+00  0.00000000E+00
  0.00000000E+00  0.00000000E+00  0.00000000E+00
  0.00000000E+00  0.00000000E+00  0.00000000E+00
  0.00000000E+00  0.00000000E+00  0.00000000E+00
  0.00000000E+00  0.00000000E+00  0.00000000E+00
  0.00000000E+00  0.00000000E+00  0.00000000E+00
  0.00000000E+00  0.00000000E+00  0.00000000E+00
  0.00000000E+00  0.00000000E+00  0.00000000E+00
  0.00000000E+00  0.00000000E+00  0.00000000E+00
  0.00000000E+00  0.00000000E+00  0.00000000E+00
  0.00000000E+00  0.00000000E+00  0.00000000E+00
  0.00000000E+00  0.00000000E+00  0.00000000E+00
  0.00000000E+00  0.00000000E+00  0.00000000E+00
  0.00000000E+00  0.00000000E+00  0.00000000E+00
  0.00000000E+00  0.00000000E+00  0.00000000E+00
  0.00000000E+00  0.00000000E+00  0.00000000E+00
  0.00000000E+00  0.00000000E+00  0.00000000E+00
  0.00000000E+00  0.00000000E+00  0.00000000E+00
  0.00000000E+00  0.00000000E+00  0.00000000E+00
  0.00000000E+00  0.00000000E+00  0.00000000E+00
  0.00000000E+00  0.00000000E+00  0.00000000E+00
  0.00000000E+00  0.00000000E+00  0.00000000E+00
  0.00000000E+00  0.00000000E+00  0.00000000E+00
  0.00000000E+00  0.00000000E+00  0.00000000E+00
  0.00000000E+00  0.00000000E+00  0.00000000E+00
  0.00000000E+00  0.00000000E+00  0.00000000E+00
  0.00000000E+00  0.00000000E+00  0.00000000E+00
  0.00000000E+00  0.00000000E+00  0.00000000E+00
  0.00000000E+00  0.00000000E+00  0.00000000E+00
  0.00000000E+00  0.00000000E+00  0.00000000E+00
  0.00000000E+00  0.00000000E+00  0.00000000E+00
  0.00000000E+00  0.00000000E+00  0.00000000E+00
  0.00000000E+00  0.00000000E+00  0.00000000E+00
  0.00000000E+00  0.00000000E+00  0.00000000E+00
  0.00000000E+00  0.00000000E+00  0.00000000E+00
  0.00000000E+00  0.00000000E+00  0.00000000E+00
  0.00000000E+00  0.00000000E+00  0.00000000E+00
  0.00000000E+00  0.00000000E+00  0.00000000E+00
  0.00000000E+00  0.00000000E+00  0.00000000E+00
  0.00000000E+00  0.00000000E+00  0.00000000E+00
  0.00000000E+00  0.00000000E+00  0.00000000E+00
  0.00000000E+00  0.00000000E+00  0.00000000E+00
  0.00000000E+00  0.00000000E+00  0.00000000E+00
  0.00000000E+00  0.00000000E+00  0.00000000E+00
  0.00000000E+00  0.00000000E+00  0.00000000E+00
  0.00000000E+00  0.00000000E+00  0.00000000E+00
  0.00000000E+00  0.00000000E+00  0.00000000E+00
  0.00000000E+00  0.00000000E+00  0.00000000E+00
  0.00000000E+00  0.00000000E+00  0.00000000E+00
  0.00000000E+00  0.00000000E+00  0.00000000E+00
  0.00000000E+00  0.00000000E+00  0.00000000E+00
  0.00000000E+00  0.00000000E+00  0.00000000E+00
  0.00000000E+00  0.00000000E+00  0.00000000E+00
  0.00000000E+00  0.00000000E+00  0.00000000E+00
  0.00000000E+00  0.00000000E+00  0.00000000E+00
  0.00000000E+00  0.00000000E+00  0.00000000E+00
  0.00000000E+00  0.00000000E+00  0.00000000E+00
  0.00000000E+00  0.00000000E+00  0.00000000E+00
  0.00000000E+00  0.00000000E+00  0.00000000E+00
  0.00000000E+00  0.00000000E+00  0.00000000E+00
  0.00000000E+00  0.00000000E+00  0.00000000E+00
  0.00000000E+00  0.00000000E+00  0.00000000E+00
  0.00000000E+00  0.00000000E+00  0.00000000E+00
  0.00000000E+00  0.00000000E+00  0.00000000E+00
  0.00000000E+00  0.00000000E+00  0.00000000E+00
