11.26                                   
   1.00000000000000     
    11.2227001190000006    0.0000000000000000    0.0000000000000000
     5.6113500595000003    9.7191434021000003    0.0000000000000000
     0.0000000000000000    0.0000000000000000   22.0000000000000000
   Pt   Fe   Co   Cu   Ni   H 
    32    13    10    13    12     1
Selective dynamics
Direct
  0.7824851092584666  0.8712212341542838  0.3047352960272747   F   F   F
  0.0318020901978855  0.8713881477013814  0.2995933869772713   F   F   F
  0.2778084791390114  0.3624228556128628  0.3140257364999997   F   F   F
  0.8707876922973625  0.9571014887474618  0.4055866271818189   F   F   F
  0.1106309872228906  0.4632500105438453  0.4129098172499965   F   F   F
  0.1205646746332931  0.9488139821774269  0.4056330467863631   F   F   F
  0.8732671203884124  0.4543622077688312  0.4181085325136351   F   F   F
  0.3701064613862499  0.9524541187034927  0.4145381212090911   F   F   F
  0.8722862618423619  0.2014062564687578  0.4093772000772731   F   F   F
  0.1264229772091525  0.2067837220681170  0.4131018957454557   F   F   F
  0.6266345941012474  0.9504229905388684  0.4116593752045432   F   F   F
  0.8686736066037781  0.7067224110322172  0.4124956065409080   F   F   F
  0.3758518586221342  0.1951669456374248  0.4150928714409119   F   F   F
  0.3681164700124313  0.7065154026656657  0.4071128463500031   F   F   F
  0.6134070907416387  0.4564029747355676  0.4136268632727251   F   F   F
  0.1159603771383715  0.7054687815614002  0.4098924258318206   F   F   F
  0.6213600177270493  0.2021258780661199  0.4097527706727249   F   F   F
  0.5362030264703748  0.3726088783006887  0.3101816937000024   F   F   F
  0.5316909629926982  0.1165722494078238  0.3111475001590875   F   F   F
  0.5569226188755110  0.1086708656929360  0.0592961979909106   F   F   F
  0.0930745014782630  0.4259856488078384  0.1229365454818208   F   F   F
  0.0499398514182730  0.1259193336457614  0.3106769898772725   F   F   F
  0.0235476180177372  0.1116837216400626  0.0415554665318183   F   F   F
  0.1293428954640135  0.9475379252774658  0.1410218874318190   F   F   F
  0.3661597419278237  0.4533062432074075  0.4119547345727241   F   F   F
  0.4463733127121827  0.5590599617993064  0.2201686420090923   F   F   F
  0.6147315754370197  0.7068387055402070  0.4127901337727238   F   F   F
  0.9496412988475953  0.7566142239563121  0.2091809507181850   F   F   F
  0.7938344836133808  0.6141246359334858  0.3155923319500005   F   F   F
  0.2705516973693776  0.6172337450545058  0.3085086284409115   F   F   F
  0.1891672861307754  0.2657704220046710  0.2250055169318159   F   F   F
  0.6933157080343193  0.5494170253055657  0.2213121226772756   F   F   F
  0.0318892466987606  0.6254057448505819  0.3139709666999977   F   F   F
  0.7908976721677661  0.8607398451588253  0.0643550995272761   F   F   F
  0.0497744387680896  0.8515179213645325  0.0563143962045487   F   F   F
  0.0482691984141681  0.6404573579452517  0.0664752515863611   F   F   F
  0.6277707382687936  0.2312090485478890  0.1342846206409121   F   F   F
  0.3782172184191310  0.9483996770135477  0.1357048643863621   F   F   F
  0.0288263948680054  0.3763784212515660  0.3197424311045438   F   F   F
  0.9804591417191091  0.3557507153514052  0.0436524654181838   F   F   F
  0.8640049941009735  0.2076928001868836  0.1340350911636392   F   F   F
  0.9451399085370085  0.5266535011813929  0.2211150897863661   F   F   F
  0.2972558327966581  0.1086811566615822  0.3200384073272744   F   F   F
  0.5401545283938773  0.6174985353033549  0.3187377063909125   F   F   F
  0.2731123853233228  0.0985488070371545  0.0516987688636377   F   F   F
  0.5334473651308755  0.6203591302189508  0.0498930076045454   F   F   F
  0.2770995757786139  0.4215163844804266  0.0587340680727237   F   F   F
  0.6210554875665082  0.9270430545096389  0.1407946278545467   F   F   F
  0.7025641402416909  0.7747404709218557  0.2204396092954539   F   F   F
  0.8411225825284063  0.6704695058714734  0.1300022238272760   F   F   F
  0.6105486174653407  0.4610934769139945  0.1309991407090934   F   F   F
  0.3010711213664123  0.8808249744365639  0.3174955906318147   F   F   F
  0.2940362362996041  0.8760797686409489  0.0475515383727299   F   F   F
  0.6041934999629675  0.7158029702079318  0.1307821798045481   F   F   F
  0.2360731343730578  0.0174466072764545  0.2280154387772697   F   F   F
  0.5242744956851624  0.3792912181235550  0.0425614798636360   F   F   F
  0.3551744787353499  0.2076428621234214  0.1336254578909077   F   F   F
  0.1731039612630880  0.6910893229282635  0.1515240298045484   F   F   F
  0.6923909364538048  0.0568688020675339  0.2191301533863665   F   F   F
  0.7850614604694073  0.1274737734739375  0.3111644555818174   F   F   F
  0.5392786080640022  0.8690863273891907  0.3159923062818208   F   F   F
  0.7883185831952346  0.1103053582652507  0.0446684269954574   F   F   F
  0.5334963982674452  0.8779383385532000  0.0444767040636336   F   F   F
  0.1956673589336688  0.5076262213739966  0.2180563182363642   F   F   F
  0.9389271056883146  0.2975856390981022  0.2254350185045482   F   F   F
  0.8699442896834526  0.9728939451039409  0.1405358531681813   F   F   F
  0.7122658308791756  0.2953772504045702  0.2257043105318175   F   F   F
  0.4508133290681684  0.2778763517489082  0.2206428684818178   F   F   F
  0.8520537964486579  0.4351961425516251  0.1324833155681802   F   F   F
  0.1113962825649395  0.1869968796949024  0.1345737873590878   F   F   F
  0.7644304487144638  0.5913785966938292  0.0471152797272723   F   F   F
  0.2998235260282129  0.6241094473397055  0.0562708154227280   F   F   F
  0.3800882668218932  0.7239098677029290  0.1343728076227251   F   F   F
  0.3936821377214841  0.4392606579894220  0.1380873863636367   F   F   F
  0.7830161441157344  0.3819205985064471  0.3190744065954547   F   F   F
  0.7666413314546432  0.3542370531291965  0.0467139270818180   F   F   F
  0.9442228821784298  0.0677696185198471  0.2233989054818153   F   F   F
  0.4628237781163875  0.7941129895493049  0.2276203148272700   F   F   F
  0.2363871684906798  0.7979533000741910  0.2316199022272727   F   F   F
  0.4553361678960712  0.0262284913447104  0.2236937692727281   F   F   F
  0.7837735066186512  0.3675598496497230  0.4498070456227262   T   T   T
 
  0.00000000E+00  0.00000000E+00  0.00000000E+00
  0.00000000E+00  0.00000000E+00  0.00000000E+00
  0.00000000E+00  0.00000000E+00  0.00000000E+00
  0.00000000E+00  0.00000000E+00  0.00000000E+00
  0.00000000E+00  0.00000000E+00  0.00000000E+00
  0.00000000E+00  0.00000000E+00  0.00000000E+00
  0.00000000E+00  0.00000000E+00  0.00000000E+00
  0.00000000E+00  0.00000000E+00  0.00000000E+00
  0.00000000E+00  0.00000000E+00  0.00000000E+00
  0.00000000E+00  0.00000000E+00  0.00000000E+00
  0.00000000E+00  0.00000000E+00  0.00000000E+00
  0.00000000E+00  0.00000000E+00  0.00000000E+00
  0.00000000E+00  0.00000000E+00  0.00000000E+00
  0.00000000E+00  0.00000000E+00  0.00000000E+00
  0.00000000E+00  0.00000000E+00  0.00000000E+00
  0.00000000E+00  0.00000000E+00  0.00000000E+00
  0.00000000E+00  0.00000000E+00  0.00000000E+00
  0.00000000E+00  0.00000000E+00  0.00000000E+00
  0.00000000E+00  0.00000000E+00  0.00000000E+00
  0.00000000E+00  0.00000000E+00  0.00000000E+00
  0.00000000E+00  0.00000000E+00  0.00000000E+00
  0.00000000E+00  0.00000000E+00  0.00000000E+00
  0.00000000E+00  0.00000000E+00  0.00000000E+00
  0.00000000E+00  0.00000000E+00  0.00000000E+00
  0.00000000E+00  0.00000000E+00  0.00000000E+00
  0.00000000E+00  0.00000000E+00  0.00000000E+00
  0.00000000E+00  0.00000000E+00  0.00000000E+00
  0.00000000E+00  0.00000000E+00  0.00000000E+00
  0.00000000E+00  0.00000000E+00  0.00000000E+00
  0.00000000E+00  0.00000000E+00  0.00000000E+00
  0.00000000E+00  0.00000000E+00  0.00000000E+00
  0.00000000E+00  0.00000000E+00  0.00000000E+00
  0.00000000E+00  0.00000000E+00  0.00000000E+00
  0.00000000E+00  0.00000000E+00  0.00000000E+00
  0.00000000E+00  0.00000000E+00  0.00000000E+00
  0.00000000E+00  0.00000000E+00  0.00000000E+00
  0.00000000E+00  0.00000000E+00  0.00000000E+00
  0.00000000E+00  0.00000000E+00  0.00000000E+00
  0.00000000E+00  0.00000000E+00  0.00000000E+00
  0.00000000E+00  0.00000000E+00  0.00000000E+00
  0.00000000E+00  0.00000000E+00  0.00000000E+00
  0.00000000E+00  0.00000000E+00  0.00000000E+00
  0.00000000E+00  0.00000000E+00  0.00000000E+00
  0.00000000E+00  0.00000000E+00  0.00000000E+00
  0.00000000E+00  0.00000000E+00  0.00000000E+00
  0.00000000E+00  0.00000000E+00  0.00000000E+00
  0.00000000E+00  0.00000000E+00  0.00000000E+00
  0.00000000E+00  0.00000000E+00  0.00000000E+00
  0.00000000E+00  0.00000000E+00  0.00000000E+00
  0.00000000E+00  0.00000000E+00  0.00000000E+00
  0.00000000E+00  0.00000000E+00  0.00000000E+00
  0.00000000E+00  0.00000000E+00  0.00000000E+00
  0.00000000E+00  0.00000000E+00  0.00000000E+00
  0.00000000E+00  0.00000000E+00  0.00000000E+00
  0.00000000E+00  0.00000000E+00  0.00000000E+00
  0.00000000E+00  0.00000000E+00  0.00000000E+00
  0.00000000E+00  0.00000000E+00  0.00000000E+00
  0.00000000E+00  0.00000000E+00  0.00000000E+00
  0.00000000E+00  0.00000000E+00  0.00000000E+00
  0.00000000E+00  0.00000000E+00  0.00000000E+00
  0.00000000E+00  0.00000000E+00  0.00000000E+00
  0.00000000E+00  0.00000000E+00  0.00000000E+00
  0.00000000E+00  0.00000000E+00  0.00000000E+00
  0.00000000E+00  0.00000000E+00  0.00000000E+00
  0.00000000E+00  0.00000000E+00  0.00000000E+00
  0.00000000E+00  0.00000000E+00  0.00000000E+00
  0.00000000E+00  0.00000000E+00  0.00000000E+00
  0.00000000E+00  0.00000000E+00  0.00000000E+00
  0.00000000E+00  0.00000000E+00  0.00000000E+00
  0.00000000E+00  0.00000000E+00  0.00000000E+00
  0.00000000E+00  0.00000000E+00  0.00000000E+00
  0.00000000E+00  0.00000000E+00  0.00000000E+00
  0.00000000E+00  0.00000000E+00  0.00000000E+00
  0.00000000E+00  0.00000000E+00  0.00000000E+00
  0.00000000E+00  0.00000000E+00  0.00000000E+00
  0.00000000E+00  0.00000000E+00  0.00000000E+00
  0.00000000E+00  0.00000000E+00  0.00000000E+00
  0.00000000E+00  0.00000000E+00  0.00000000E+00
  0.00000000E+00  0.00000000E+00  0.00000000E+00
  0.00000000E+00  0.00000000E+00  0.00000000E+00
  0.00000000E+00  0.00000000E+00  0.00000000E+00
