11.26                                   
   1.00000000000000     
    11.2227001190000006    0.0000000000000000    0.0000000000000000
     5.6113500595000003    9.7191434021000003    0.0000000000000000
     0.0000000000000000    0.0000000000000000   22.0000000000000000
   Pt   Fe   Co
    32    26    22
Direct
  0.7835393179778692  0.8753484675780040  0.3035835951610733
  0.0385977725377209  0.8524846042807916  0.2977313804972633
  0.2835499770961589  0.3558634002446543  0.3007524554072504
  0.8719439323334651  0.9630290982231446  0.3987184933415091
  0.1127574022706644  0.4567514037087198  0.4031402174319476
  0.1268428143300208  0.9513756871970347  0.3882755457396634
  0.8634970371791213  0.4542677645250694  0.4058395830916194
  0.3753318268132582  0.9575458229941780  0.4086809553524828
  0.8603351820492021  0.2127824929555015  0.3832532493582120
  0.1215532026678464  0.2081159547073585  0.3996142832623797
  0.6254360423903315  0.9520218288195126  0.4104621568353220
  0.8741906540191648  0.7073389634642886  0.4074105490429928
  0.3634832603318857  0.2077335264143259  0.4090374620295468
  0.3623890782197255  0.7006650571439336  0.3889989323102280
  0.6068272383318436  0.4652143358624306  0.3937742379048091
  0.1175449538052030  0.6967248206036782  0.3994657052248710
  0.6153918710795361  0.2108014650553878  0.4041083178050390
  0.5291736301348074  0.3664447831566248  0.2903738861135291
  0.5307580835658959  0.1132369990318383  0.3092486513890074
  0.5688740690511916  0.1133992141961943  0.0610358609661346
  0.1104723069528210  0.4143115825862551  0.1136613912676984
  0.0559769476883124  0.1339471320177195  0.2955008681779415
  0.0074150542259614  0.1117246285323344  0.0465506478139101
  0.1017803903167148  0.9666215427253718  0.1497944788691674
  0.3669710347666023  0.4524169360036164  0.3987788192439119
  0.4584255237281121  0.5844760857775917  0.2166990825570997
  0.6192163245365585  0.7090428997808959  0.4073396756789046
  0.9461437805276505  0.7575320777628940  0.2074702899810696
  0.7904818744204034  0.6340882456351172  0.3063647108589611
  0.2675091064681220  0.6069180155859075  0.2914575780550779
  0.1696377443610529  0.2683145987981488  0.2242275253630231
  0.7033381087439805  0.5655215900202502  0.2096929763028531
  0.0406464354169543  0.5919331120345473  0.3020088730899999
  0.8117377036843225  0.8679538397959159  0.0966687250343511
  0.0932398944230458  0.8038084314493998  0.0780034906644689
  0.0382677398962386  0.6578684337186650  0.1090490248804907
  0.6576758944633239  0.1984045993013059  0.1534371614122048
  0.3551758118452957  0.9768800067684029  0.1333159693553230
  0.0064458878679960  0.3954710511804362  0.3102915788512520
 -0.0130064275972147  0.3369096155441666  0.0440083798160402
  0.8702007647775197  0.2006089569233236  0.1481625769570564
  0.9600637628967008  0.5152954052648860  0.2177633540891993
  0.3085297298492789  0.1007720683296819  0.3119833776616390
  0.5468102952749546  0.6544523480509826  0.3092610327422872
  0.3060107673536996  0.1168387837635644  0.0511497761102317
  0.5577628088880966  0.3454657727404434  0.0715879808998510
  0.3487723989932551  0.1904525650186690  0.1419566643042399
  0.2071991594703159  0.6676734273973922  0.1678782101284426
  0.6771707711672248  0.0309919435055833  0.2152882118148779
  0.7494878356759891  0.1266541144531229  0.3068406425399500
  0.5389185512801536  0.8720017543796809  0.3109430582960036
  0.7731373377609181  0.1402012386602369  0.0630119748904926
  0.4920510646477937  0.9230753062124999  0.0481560947494493
  0.1711323846829235  0.5100565298404148  0.2118005830478557
  0.9196864253054361  0.3242460868339148  0.2264212695606624
  0.8615165247766534  0.9900915091282095  0.1482605360968910
  0.7484469578212116  0.2719183834526978  0.2365729121082057
  0.4653032775830073  0.2329009544550001  0.2109095391141395
  0.8823231875540852  0.4169407459680902  0.1318232038481117
  0.0980511543244863  0.1915930968306665  0.1342974981367524
  0.7436809293056683  0.5746564887077309  0.0606152867128561
  0.3007240896307895  0.6125221952437753  0.0746703195732619
  0.3578940218854884  0.7616960261672348  0.1333588115004537
  0.4077592953915583  0.4261502104754306  0.1594873311421198
  0.7664467543636526  0.4153689024026631  0.3063021246709454
  0.7660091799931145  0.3531390499154323  0.0577038346635747
  0.9202955764706510  0.0561148575762952  0.2366615255852106
  0.4634638619915460  0.8051693726009798  0.2231229619746048
  0.2349007040646038  0.8160861253443982  0.2334190076501464
  0.4610838675098068  0.0223466907491146  0.2247200941763307
  0.5391391410288991  0.5752426986595294  0.0769827486828234
  0.3450916848319315  0.3522125159469295  0.0731017065861155
  0.5899015285975361  0.9464445341339166  0.1350490692134253
  0.6776330704537200  0.8100239966273252  0.2185500643859062
  0.8216416142554284  0.6662567190762665  0.1366911806420895
  0.6464382578937076  0.4104926075241655  0.1501366017602573
  0.3266643262907659  0.8787474295270125  0.3122950625410387
  0.2691228467199521  0.9171452953259079  0.0509479833886137
  0.5749428199010173  0.7489722141306260  0.1239038215709543
  0.2482114964153453  0.0156130424745555  0.2250552529442853
 
  0.00000000E+00  0.00000000E+00  0.00000000E+00
  0.00000000E+00  0.00000000E+00  0.00000000E+00
  0.00000000E+00  0.00000000E+00  0.00000000E+00
  0.00000000E+00  0.00000000E+00  0.00000000E+00
  0.00000000E+00  0.00000000E+00  0.00000000E+00
  0.00000000E+00  0.00000000E+00  0.00000000E+00
  0.00000000E+00  0.00000000E+00  0.00000000E+00
  0.00000000E+00  0.00000000E+00  0.00000000E+00
  0.00000000E+00  0.00000000E+00  0.00000000E+00
  0.00000000E+00  0.00000000E+00  0.00000000E+00
  0.00000000E+00  0.00000000E+00  0.00000000E+00
  0.00000000E+00  0.00000000E+00  0.00000000E+00
  0.00000000E+00  0.00000000E+00  0.00000000E+00
  0.00000000E+00  0.00000000E+00  0.00000000E+00
  0.00000000E+00  0.00000000E+00  0.00000000E+00
  0.00000000E+00  0.00000000E+00  0.00000000E+00
  0.00000000E+00  0.00000000E+00  0.00000000E+00
  0.00000000E+00  0.00000000E+00  0.00000000E+00
  0.00000000E+00  0.00000000E+00  0.00000000E+00
  0.00000000E+00  0.00000000E+00  0.00000000E+00
  0.00000000E+00  0.00000000E+00  0.00000000E+00
  0.00000000E+00  0.00000000E+00  0.00000000E+00
  0.00000000E+00  0.00000000E+00  0.00000000E+00
  0.00000000E+00  0.00000000E+00  0.00000000E+00
  0.00000000E+00  0.00000000E+00  0.00000000E+00
  0.00000000E+00  0.00000000E+00  0.00000000E+00
  0.00000000E+00  0.00000000E+00  0.00000000E+00
  0.00000000E+00  0.00000000E+00  0.00000000E+00
  0.00000000E+00  0.00000000E+00  0.00000000E+00
  0.00000000E+00  0.00000000E+00  0.00000000E+00
  0.00000000E+00  0.00000000E+00  0.00000000E+00
  0.00000000E+00  0.00000000E+00  0.00000000E+00
  0.00000000E+00  0.00000000E+00  0.00000000E+00
  0.00000000E+00  0.00000000E+00  0.00000000E+00
  0.00000000E+00  0.00000000E+00  0.00000000E+00
  0.00000000E+00  0.00000000E+00  0.00000000E+00
  0.00000000E+00  0.00000000E+00  0.00000000E+00
  0.00000000E+00  0.00000000E+00  0.00000000E+00
  0.00000000E+00  0.00000000E+00  0.00000000E+00
  0.00000000E+00  0.00000000E+00  0.00000000E+00
  0.00000000E+00  0.00000000E+00  0.00000000E+00
  0.00000000E+00  0.00000000E+00  0.00000000E+00
  0.00000000E+00  0.00000000E+00  0.00000000E+00
  0.00000000E+00  0.00000000E+00  0.00000000E+00
  0.00000000E+00  0.00000000E+00  0.00000000E+00
  0.00000000E+00  0.00000000E+00  0.00000000E+00
  0.00000000E+00  0.00000000E+00  0.00000000E+00
  0.00000000E+00  0.00000000E+00  0.00000000E+00
  0.00000000E+00  0.00000000E+00  0.00000000E+00
  0.00000000E+00  0.00000000E+00  0.00000000E+00
  0.00000000E+00  0.00000000E+00  0.00000000E+00
  0.00000000E+00  0.00000000E+00  0.00000000E+00
  0.00000000E+00  0.00000000E+00  0.00000000E+00
  0.00000000E+00  0.00000000E+00  0.00000000E+00
  0.00000000E+00  0.00000000E+00  0.00000000E+00
  0.00000000E+00  0.00000000E+00  0.00000000E+00
  0.00000000E+00  0.00000000E+00  0.00000000E+00
  0.00000000E+00  0.00000000E+00  0.00000000E+00
  0.00000000E+00  0.00000000E+00  0.00000000E+00
  0.00000000E+00  0.00000000E+00  0.00000000E+00
  0.00000000E+00  0.00000000E+00  0.00000000E+00
  0.00000000E+00  0.00000000E+00  0.00000000E+00
  0.00000000E+00  0.00000000E+00  0.00000000E+00
  0.00000000E+00  0.00000000E+00  0.00000000E+00
  0.00000000E+00  0.00000000E+00  0.00000000E+00
  0.00000000E+00  0.00000000E+00  0.00000000E+00
  0.00000000E+00  0.00000000E+00  0.00000000E+00
  0.00000000E+00  0.00000000E+00  0.00000000E+00
  0.00000000E+00  0.00000000E+00  0.00000000E+00
  0.00000000E+00  0.00000000E+00  0.00000000E+00
  0.00000000E+00  0.00000000E+00  0.00000000E+00
  0.00000000E+00  0.00000000E+00  0.00000000E+00
  0.00000000E+00  0.00000000E+00  0.00000000E+00
  0.00000000E+00  0.00000000E+00  0.00000000E+00
  0.00000000E+00  0.00000000E+00  0.00000000E+00
  0.00000000E+00  0.00000000E+00  0.00000000E+00
  0.00000000E+00  0.00000000E+00  0.00000000E+00
  0.00000000E+00  0.00000000E+00  0.00000000E+00
  0.00000000E+00  0.00000000E+00  0.00000000E+00
  0.00000000E+00  0.00000000E+00  0.00000000E+00
