10.36                                   
   1.00000000000000     
    10.3599996566999994    0.0000000000000000    0.0000000000000000
     5.1799998282999997    8.9720228858999995    0.0000000000000000
     0.0000000000000000    0.0000000000000000   22.0000000000000000
   Pt   Fe   Co   Cu   Ni   H 
    32    13    10    13    12     1
Selective dynamics
Direct
  0.7879328840220614  0.8779932668563496  0.3191840914258641   T   T   T
  0.0425830061049449  0.8829066697045329  0.3178029033676393   T   T   T
  0.2792779048371488  0.3811584006386002  0.3218641406562764   T   T   T
  0.8762070222162398  0.9598647885229424  0.4285575914064291   T   T   T
  0.1250093518200655  0.4596006400215351  0.4356878634600634   T   T   T
  0.1263261466229502  0.9597079453871262  0.4256201254787635   T   T   T
  0.8774207550587259  0.4573920884956384  0.4280890517776502   T   T   T
  0.3767031594773103  0.9583961421700600  0.4214903171482337   T   T   T
  0.8757950749872343  0.2090669815379786  0.4206723091365610   T   T   T
  0.1271391198826764  0.2087613431300600  0.4265598792240631   T   T   T
  0.6264878736583943  0.9577838471690109  0.4280121938094555   T   T   T
  0.8766136566252883  0.7090742541407319  0.4295100605622633   T   T   T
  0.3766125890455880  0.2074616126573255  0.4265300292824429   T   T   T
  0.3759456094751620  0.7109348675562442  0.4248434927630751   T   T   T
  0.6266292677626140  0.4574522559925711  0.4357166881606740   T   T   T
  0.1260859084022376  0.7091616955990296  0.4317545469023774   T   T   T
  0.6269739297724546  0.2087382474787639  0.4245417357515184   T   T   T
  0.5501354382457346  0.3781601279199737  0.3202528607326094   T   T   T
  0.5361719769410058  0.1251218653113739  0.3157091653650930   T   T   T
  0.5458014400089226  0.1234550493780731  0.0359400593772747   F   F   F
  0.1219383108401360  0.4607637042028472  0.1261476945818174   F   F   F
  0.0431571013107574  0.1373833821594457  0.3143275197313118   T   T   T
  0.0426177556592364  0.1297797889737780  0.0304909520954553   F   F   F
  0.1298428761067072  0.9585265795537836  0.1305436315363622   F   F   F
  0.3750662888993758  0.4594856729931439  0.4304285440948061   T   T   T
  0.4536142831861127  0.5450805790169824  0.2185534362818160   F   F   F
  0.6253479630193464  0.7106310505617789  0.4399698960300236   T   T   T
  0.9567679528542641  0.7907913211133391  0.2215395440363608   F   F   F
  0.7910386658948754  0.6234125304305320  0.3205421322437384   T   T   T
  0.2922912905556493  0.6312983154209907  0.3194766433956433   T   T   T
  0.2033968113129916  0.2831573253555248  0.2254814981590911   F   F   F
  0.7079943538448035  0.5476533912460155  0.2203153201272698   F   F   F
  0.0409311914781297  0.6301546595213746  0.3284668569561506   T   T   T
  0.7980538117324372  0.8624341141126948  0.0385159092227241   F   F   F
  0.0552849574256129  0.8673564735473107  0.0343513444545422   F   F   F
  0.0474090248444483  0.6263712164546362  0.0327916081590942   F   F   F
  0.6264571710535165  0.2185083723293815  0.1268634264227302   F   F   F
  0.3829453672912493  0.9548385219640068  0.1285988211636351   F   F   F
  0.0361336848064376  0.3836059648049181  0.3268890826302918   T   T   T
  0.0333104805050652  0.3830854889148227  0.0338960332000013   F   F   F
  0.8707331529917894  0.2156009995070320  0.1265163613454519   F   F   F
  0.9554721997300177  0.5448036240836771  0.2234071909181807   F   F   F
  0.2958922425596593  0.1168698749920018  0.3223106848799516   T   T   T
  0.5421163798193469  0.6303170051325077  0.3248829532342099   T   T   T
  0.2949796661070749  0.1207060839425580  0.0354777079681838   F   F   F
  0.5468395352815776  0.6255393754088701  0.0407606834636383   F   F   F
  0.2937150855157071  0.3805059751201867  0.0349060453818169   F   F   F
  0.6256401488194570  0.9526282026021207  0.1307260463590936   F   F   F
  0.7059268653305040  0.7956112008160545  0.2192326928636348   F   F   F
  0.8672931192344109  0.7077434861182965  0.1272654984636361   F   F   F
  0.6257430270251945  0.4611784098882126  0.1254728431772705   F   F   F
  0.2992068374953803  0.8762409723461861  0.3174837259932925   T   T   T
  0.3044523837364466  0.8674590556084283  0.0378147787681797   F   F   F
  0.6276506550672281  0.7130309952902323  0.1270004925727264   F   F   F
  0.2224885567561898  0.0301811762680160  0.2268316968727291   F   F   F
  0.5436321503495236  0.3798759509136147  0.0314790966954561   F   F   F
  0.3785322377896421  0.2050962626379231  0.1304079932181850   F   F   F
  0.1335856850995540  0.7058118501962269  0.1296243496818192   F   F   F
  0.7052232585528557  0.0495490680701067  0.2204402018590912   F   F   F
  0.7926365682422843  0.1300438618829608  0.3171560608665904   T   T   T
  0.5384230139821293  0.8735404078263143  0.3176202507854695   T   T   T
  0.7961477246739292  0.1230227477835157  0.0309807547499972   F   F   F
  0.5459767523362302  0.8695969387529416  0.0336065307954527   F   F   F
  0.2072282577882945  0.5419788292495227  0.2243820184272707   F   F   F
  0.9526128984599183  0.2947893967765651  0.2201704496772692   F   F   F
  0.8718774810604728  0.9624754198042567  0.1273033371999972   F   F   F
  0.7130345181012316  0.2886236761800518  0.2224983166227261   F   F   F
  0.4575250881556840  0.2905277095867049  0.2202344651227293   F   F   F
  0.8748423801886673  0.4570171218626697  0.1258167675954525   F   F   F
  0.1277806656162355  0.2080787861602431  0.1274778483136387   F   F   F
  0.7924830963535570  0.6234970774306987  0.0376528518590931   F   F   F
  0.2975240081599964  0.6248523074111176  0.0387144017045458   F   F   F
  0.3848216830637057  0.7097879868995918  0.1274289244681839   F   F   F
  0.3825565390611771  0.4518961651637952  0.1244171486045431   F   F   F
  0.7933831877541416  0.3788981000566532  0.3202177978985811   T   T   T
  0.7906424157987573  0.3775544735093703  0.0363354318318159   F   F   F
  0.9558869718144862  0.0511319708759288  0.2211004496863609   F   F   F
  0.4577502232223978  0.7969477794396838  0.2237495504727249   F   F   F
  0.2115698532229970  0.7984364491376823  0.2244089375772731   F   F   F
  0.4622948514299310  0.0319863000740881  0.2214779897681822   F   F   F
  0.6257340169230365  0.5763266218536403  0.4909483892140674   T   T   T
 
  0.00000000E+00  0.00000000E+00  0.00000000E+00
  0.00000000E+00  0.00000000E+00  0.00000000E+00
  0.00000000E+00  0.00000000E+00  0.00000000E+00
  0.00000000E+00  0.00000000E+00  0.00000000E+00
  0.00000000E+00  0.00000000E+00  0.00000000E+00
  0.00000000E+00  0.00000000E+00  0.00000000E+00
  0.00000000E+00  0.00000000E+00  0.00000000E+00
  0.00000000E+00  0.00000000E+00  0.00000000E+00
  0.00000000E+00  0.00000000E+00  0.00000000E+00
  0.00000000E+00  0.00000000E+00  0.00000000E+00
  0.00000000E+00  0.00000000E+00  0.00000000E+00
  0.00000000E+00  0.00000000E+00  0.00000000E+00
  0.00000000E+00  0.00000000E+00  0.00000000E+00
  0.00000000E+00  0.00000000E+00  0.00000000E+00
  0.00000000E+00  0.00000000E+00  0.00000000E+00
  0.00000000E+00  0.00000000E+00  0.00000000E+00
  0.00000000E+00  0.00000000E+00  0.00000000E+00
  0.00000000E+00  0.00000000E+00  0.00000000E+00
  0.00000000E+00  0.00000000E+00  0.00000000E+00
  0.00000000E+00  0.00000000E+00  0.00000000E+00
  0.00000000E+00  0.00000000E+00  0.00000000E+00
  0.00000000E+00  0.00000000E+00  0.00000000E+00
  0.00000000E+00  0.00000000E+00  0.00000000E+00
  0.00000000E+00  0.00000000E+00  0.00000000E+00
  0.00000000E+00  0.00000000E+00  0.00000000E+00
  0.00000000E+00  0.00000000E+00  0.00000000E+00
  0.00000000E+00  0.00000000E+00  0.00000000E+00
  0.00000000E+00  0.00000000E+00  0.00000000E+00
  0.00000000E+00  0.00000000E+00  0.00000000E+00
  0.00000000E+00  0.00000000E+00  0.00000000E+00
  0.00000000E+00  0.00000000E+00  0.00000000E+00
  0.00000000E+00  0.00000000E+00  0.00000000E+00
  0.00000000E+00  0.00000000E+00  0.00000000E+00
  0.00000000E+00  0.00000000E+00  0.00000000E+00
  0.00000000E+00  0.00000000E+00  0.00000000E+00
  0.00000000E+00  0.00000000E+00  0.00000000E+00
  0.00000000E+00  0.00000000E+00  0.00000000E+00
  0.00000000E+00  0.00000000E+00  0.00000000E+00
  0.00000000E+00  0.00000000E+00  0.00000000E+00
  0.00000000E+00  0.00000000E+00  0.00000000E+00
  0.00000000E+00  0.00000000E+00  0.00000000E+00
  0.00000000E+00  0.00000000E+00  0.00000000E+00
  0.00000000E+00  0.00000000E+00  0.00000000E+00
  0.00000000E+00  0.00000000E+00  0.00000000E+00
  0.00000000E+00  0.00000000E+00  0.00000000E+00
  0.00000000E+00  0.00000000E+00  0.00000000E+00
  0.00000000E+00  0.00000000E+00  0.00000000E+00
  0.00000000E+00  0.00000000E+00  0.00000000E+00
  0.00000000E+00  0.00000000E+00  0.00000000E+00
  0.00000000E+00  0.00000000E+00  0.00000000E+00
  0.00000000E+00  0.00000000E+00  0.00000000E+00
  0.00000000E+00  0.00000000E+00  0.00000000E+00
  0.00000000E+00  0.00000000E+00  0.00000000E+00
  0.00000000E+00  0.00000000E+00  0.00000000E+00
  0.00000000E+00  0.00000000E+00  0.00000000E+00
  0.00000000E+00  0.00000000E+00  0.00000000E+00
  0.00000000E+00  0.00000000E+00  0.00000000E+00
  0.00000000E+00  0.00000000E+00  0.00000000E+00
  0.00000000E+00  0.00000000E+00  0.00000000E+00
  0.00000000E+00  0.00000000E+00  0.00000000E+00
  0.00000000E+00  0.00000000E+00  0.00000000E+00
  0.00000000E+00  0.00000000E+00  0.00000000E+00
  0.00000000E+00  0.00000000E+00  0.00000000E+00
  0.00000000E+00  0.00000000E+00  0.00000000E+00
  0.00000000E+00  0.00000000E+00  0.00000000E+00
  0.00000000E+00  0.00000000E+00  0.00000000E+00
  0.00000000E+00  0.00000000E+00  0.00000000E+00
  0.00000000E+00  0.00000000E+00  0.00000000E+00
  0.00000000E+00  0.00000000E+00  0.00000000E+00
  0.00000000E+00  0.00000000E+00  0.00000000E+00
  0.00000000E+00  0.00000000E+00  0.00000000E+00
  0.00000000E+00  0.00000000E+00  0.00000000E+00
  0.00000000E+00  0.00000000E+00  0.00000000E+00
  0.00000000E+00  0.00000000E+00  0.00000000E+00
  0.00000000E+00  0.00000000E+00  0.00000000E+00
  0.00000000E+00  0.00000000E+00  0.00000000E+00
  0.00000000E+00  0.00000000E+00  0.00000000E+00
  0.00000000E+00  0.00000000E+00  0.00000000E+00
  0.00000000E+00  0.00000000E+00  0.00000000E+00
  0.00000000E+00  0.00000000E+00  0.00000000E+00
  0.00000000E+00  0.00000000E+00  0.00000000E+00
