11.26                                   
   1.00000000000000     
    11.2227001190000006    0.0000000000000000    0.0000000000000000
     5.6113500595000003    9.7191434021000003    0.0000000000000000
     0.0000000000000000    0.0000000000000000   22.0000000000000000
   Pt   Fe   Co   Cu   Ni   H 
    32    13    10    13    12     1
Selective dynamics
Direct
  0.7821112453948338  0.8715982211830301  0.3047211603456558   T   T   T
  0.0322169173867921  0.8709076111273378  0.2994904481294658   T   T   T
  0.2767793006360360  0.3632197099896833  0.3141473336401437   T   T   T
  0.8717887358850901  0.9577755462925986  0.4053198319686926   T   T   T
  0.1077371533996416  0.4650288471518027  0.4129228136814843   T   T   T
  0.1215891294297745  0.9487816436870987  0.4053456198895820   T   T   T
  0.8728220571982188  0.4474522638832307  0.4159459476115362   T   T   T
  0.3705227645055147  0.9536441594008501  0.4145137058966822   T   T   T
  0.8699918778516006  0.2043820567421727  0.4067788939692486   T   T   T
  0.1259881813514207  0.2080414082242869  0.4131126227209751   T   T   T
  0.6242686154476481  0.9505292762482481  0.4115380077165348   T   T   T
  0.8676155823378857  0.7075806972134910  0.4125671646544259   T   T   T
  0.3764926825524070  0.1956702087697905  0.4153156046103336   T   T   T
  0.3671960905841488  0.7094164656338250  0.4097085118110577   T   T   T
  0.6262531603121329  0.4509649593318734  0.4136688413210458   T   T   T
  0.1126458326085314  0.7070439734162960  0.4098149015476003   T   T   T
  0.6246074745355191  0.1996480148026976  0.4096337612390812   T   T   T
  0.5359401737031187  0.3737554561632172  0.3109149344576101   T   T   T
  0.5310007652750537  0.1173749036393739  0.3111196160675954   T   T   T
  0.5569226188755110  0.1086708656929360  0.0592961979909106   F   F   F
  0.0930745014782630  0.4259856488078384  0.1229365454818208   F   F   F
  0.0506878655181024  0.1258760099198618  0.3106730520318419   T   T   T
  0.0235476180177372  0.1116837216400626  0.0415554665318183   F   F   F
  0.1293428954640135  0.9475379252774658  0.1410218874318190   F   F   F
  0.3634888280733873  0.4502574969670070  0.4137236568126836   T   T   T
  0.4463733127121827  0.5590599617993064  0.2201686420090923   F   F   F
  0.6180192775382987  0.7045160475966189  0.4128422025858594   T   T   T
  0.9496412988475953  0.7566142239563121  0.2091809507181850   F   F   F
  0.7945840861555159  0.6141564217260151  0.3156295345376073   T   T   T
  0.2724101104753329  0.6178128357903938  0.3094485164913085   T   T   T
  0.1891672861307754  0.2657704220046710  0.2250055169318159   F   F   F
  0.6933157080343193  0.5494170253055657  0.2213121226772756   F   F   F
  0.0323450311131995  0.6259407907813885  0.3137295603067112   T   T   T
  0.7908976721677661  0.8607398451588253  0.0643550995272761   F   F   F
  0.0497744387680896  0.8515179213645325  0.0563143962045487   F   F   F
  0.0482691984141681  0.6404573579452517  0.0664752515863611   F   F   F
  0.6277707382687936  0.2312090485478890  0.1342846206409121   F   F   F
  0.3782172184191310  0.9483996770135477  0.1357048643863621   F   F   F
  0.0291595616254078  0.3767084786005597  0.3193779226391386   T   T   T
  0.9804591417191091  0.3557507153514052  0.0436524654181838   F   F   F
  0.8640049941009735  0.2076928001868836  0.1340350911636392   F   F   F
  0.9451399085370085  0.5266535011813929  0.2211150897863661   F   F   F
  0.2976175605412907  0.1092921034994727  0.3198539707817595   T   T   T
  0.5384531758870037  0.6168842226920971  0.3196570224515296   T   T   T
  0.2731123853233228  0.0985488070371545  0.0516987688636377   F   F   F
  0.5334473651308755  0.6203591302189508  0.0498930076045454   F   F   F
  0.2770995757786139  0.4215163844804266  0.0587340680727237   F   F   F
  0.6210554875665082  0.9270430545096389  0.1407946278545467   F   F   F
  0.7025641402416909  0.7747404709218557  0.2204396092954539   F   F   F
  0.8411225825284063  0.6704695058714734  0.1300022238272760   F   F   F
  0.6105486174653407  0.4610934769139945  0.1309991407090934   F   F   F
  0.3023296565983027  0.8800903155134928  0.3175570165471579   T   T   T
  0.2940362362996041  0.8760797686409489  0.0475515383727299   F   F   F
  0.6041934999629675  0.7158029702079318  0.1307821798045481   F   F   F
  0.2360731343730578  0.0174466072764545  0.2280154387772697   F   F   F
  0.5242744956851624  0.3792912181235550  0.0425614798636360   F   F   F
  0.3551744787353499  0.2076428621234214  0.1336254578909077   F   F   F
  0.1731039612630880  0.6910893229282635  0.1515240298045484   F   F   F
  0.6923909364538048  0.0568688020675339  0.2191301533863665   F   F   F
  0.7838082035109555  0.1263824510731809  0.3104691609101157   T   T   T
  0.5398910094436276  0.8681795585755144  0.3159330831109585   T   T   T
  0.7883185831952346  0.1103053582652507  0.0446684269954574   F   F   F
  0.5334963982674452  0.8779383385532000  0.0444767040636336   F   F   F
  0.1956673589336688  0.5076262213739966  0.2180563182363642   F   F   F
  0.9389271056883146  0.2975856390981022  0.2254350185045482   F   F   F
  0.8699442896834526  0.9728939451039409  0.1405358531681813   F   F   F
  0.7122658308791756  0.2953772504045702  0.2257043105318175   F   F   F
  0.4508133290681684  0.2778763517489082  0.2206428684818178   F   F   F
  0.8520537964486579  0.4351961425516251  0.1324833155681802   F   F   F
  0.1113962825649395  0.1869968796949024  0.1345737873590878   F   F   F
  0.7644304487144638  0.5913785966938292  0.0471152797272723   F   F   F
  0.2998235260282129  0.6241094473397055  0.0562708154227280   F   F   F
  0.3800882668218932  0.7239098677029290  0.1343728076227251   F   F   F
  0.3936821377214841  0.4392606579894220  0.1380873863636367   F   F   F
  0.7829953012689678  0.3826612033823769  0.3174458475355607   T   T   T
  0.7666413314546432  0.3542370531291965  0.0467139270818180   F   F   F
  0.9442228821784298  0.0677696185198471  0.2233989054818153   F   F   F
  0.4628237781163875  0.7941129895493049  0.2276203148272700   F   F   F
  0.2363871684906798  0.7979533000741910  0.2316199022272727   F   F   F
  0.4553361678960712  0.0262284913447104  0.2236937692727281   F   F   F
  0.4513328452415628  0.5326005407156171  0.4479589087773731   T   T   T
 
  0.00000000E+00  0.00000000E+00  0.00000000E+00
  0.00000000E+00  0.00000000E+00  0.00000000E+00
  0.00000000E+00  0.00000000E+00  0.00000000E+00
  0.00000000E+00  0.00000000E+00  0.00000000E+00
  0.00000000E+00  0.00000000E+00  0.00000000E+00
  0.00000000E+00  0.00000000E+00  0.00000000E+00
  0.00000000E+00  0.00000000E+00  0.00000000E+00
  0.00000000E+00  0.00000000E+00  0.00000000E+00
  0.00000000E+00  0.00000000E+00  0.00000000E+00
  0.00000000E+00  0.00000000E+00  0.00000000E+00
  0.00000000E+00  0.00000000E+00  0.00000000E+00
  0.00000000E+00  0.00000000E+00  0.00000000E+00
  0.00000000E+00  0.00000000E+00  0.00000000E+00
  0.00000000E+00  0.00000000E+00  0.00000000E+00
  0.00000000E+00  0.00000000E+00  0.00000000E+00
  0.00000000E+00  0.00000000E+00  0.00000000E+00
  0.00000000E+00  0.00000000E+00  0.00000000E+00
  0.00000000E+00  0.00000000E+00  0.00000000E+00
  0.00000000E+00  0.00000000E+00  0.00000000E+00
  0.00000000E+00  0.00000000E+00  0.00000000E+00
  0.00000000E+00  0.00000000E+00  0.00000000E+00
  0.00000000E+00  0.00000000E+00  0.00000000E+00
  0.00000000E+00  0.00000000E+00  0.00000000E+00
  0.00000000E+00  0.00000000E+00  0.00000000E+00
  0.00000000E+00  0.00000000E+00  0.00000000E+00
  0.00000000E+00  0.00000000E+00  0.00000000E+00
  0.00000000E+00  0.00000000E+00  0.00000000E+00
  0.00000000E+00  0.00000000E+00  0.00000000E+00
  0.00000000E+00  0.00000000E+00  0.00000000E+00
  0.00000000E+00  0.00000000E+00  0.00000000E+00
  0.00000000E+00  0.00000000E+00  0.00000000E+00
  0.00000000E+00  0.00000000E+00  0.00000000E+00
  0.00000000E+00  0.00000000E+00  0.00000000E+00
  0.00000000E+00  0.00000000E+00  0.00000000E+00
  0.00000000E+00  0.00000000E+00  0.00000000E+00
  0.00000000E+00  0.00000000E+00  0.00000000E+00
  0.00000000E+00  0.00000000E+00  0.00000000E+00
  0.00000000E+00  0.00000000E+00  0.00000000E+00
  0.00000000E+00  0.00000000E+00  0.00000000E+00
  0.00000000E+00  0.00000000E+00  0.00000000E+00
  0.00000000E+00  0.00000000E+00  0.00000000E+00
  0.00000000E+00  0.00000000E+00  0.00000000E+00
  0.00000000E+00  0.00000000E+00  0.00000000E+00
  0.00000000E+00  0.00000000E+00  0.00000000E+00
  0.00000000E+00  0.00000000E+00  0.00000000E+00
  0.00000000E+00  0.00000000E+00  0.00000000E+00
  0.00000000E+00  0.00000000E+00  0.00000000E+00
  0.00000000E+00  0.00000000E+00  0.00000000E+00
  0.00000000E+00  0.00000000E+00  0.00000000E+00
  0.00000000E+00  0.00000000E+00  0.00000000E+00
  0.00000000E+00  0.00000000E+00  0.00000000E+00
  0.00000000E+00  0.00000000E+00  0.00000000E+00
  0.00000000E+00  0.00000000E+00  0.00000000E+00
  0.00000000E+00  0.00000000E+00  0.00000000E+00
  0.00000000E+00  0.00000000E+00  0.00000000E+00
  0.00000000E+00  0.00000000E+00  0.00000000E+00
  0.00000000E+00  0.00000000E+00  0.00000000E+00
  0.00000000E+00  0.00000000E+00  0.00000000E+00
  0.00000000E+00  0.00000000E+00  0.00000000E+00
  0.00000000E+00  0.00000000E+00  0.00000000E+00
  0.00000000E+00  0.00000000E+00  0.00000000E+00
  0.00000000E+00  0.00000000E+00  0.00000000E+00
  0.00000000E+00  0.00000000E+00  0.00000000E+00
  0.00000000E+00  0.00000000E+00  0.00000000E+00
  0.00000000E+00  0.00000000E+00  0.00000000E+00
  0.00000000E+00  0.00000000E+00  0.00000000E+00
  0.00000000E+00  0.00000000E+00  0.00000000E+00
  0.00000000E+00  0.00000000E+00  0.00000000E+00
  0.00000000E+00  0.00000000E+00  0.00000000E+00
  0.00000000E+00  0.00000000E+00  0.00000000E+00
  0.00000000E+00  0.00000000E+00  0.00000000E+00
  0.00000000E+00  0.00000000E+00  0.00000000E+00
  0.00000000E+00  0.00000000E+00  0.00000000E+00
  0.00000000E+00  0.00000000E+00  0.00000000E+00
  0.00000000E+00  0.00000000E+00  0.00000000E+00
  0.00000000E+00  0.00000000E+00  0.00000000E+00
  0.00000000E+00  0.00000000E+00  0.00000000E+00
  0.00000000E+00  0.00000000E+00  0.00000000E+00
  0.00000000E+00  0.00000000E+00  0.00000000E+00
  0.00000000E+00  0.00000000E+00  0.00000000E+00
  0.00000000E+00  0.00000000E+00  0.00000000E+00
