10.96                                   
   1.00000000000000     
    10.9600000381000005    0.0000000000000000    0.0000000000000000
     5.4800000191000002    9.4916384585000007    0.0000000000000000
     0.0000000000000000    0.0000000000000000   22.0000000000000000
   Pt   Fe   Co   Cu   Ni   H 
    32    13    10    13    12     1
Selective dynamics
Direct
  0.7864089958336483  0.8800435763188873  0.3130064397262499   T   T   T
  0.0438135680097932  0.8809007171650288  0.3105524284387730   T   T   T
  0.2791367654329607  0.3803623633438240  0.3160628676904845   T   T   T
  0.8749261777033982  0.9637852942874425  0.4148686463011856   T   T   T
  0.1182199071000766  0.4654683313127638  0.4198516753833340   T   T   T
  0.1233370159662560  0.9626041894936839  0.4161992964462856   T   T   T
  0.8761131655472967  0.4566069357080967  0.4199660258506622   T   T   T
  0.3789269483462861  0.9608913613496800  0.4167728395937024   T   T   T
  0.8743880809035660  0.2105402223309042  0.4135622268394661   T   T   T
  0.1269730841673009  0.2140023980241445  0.4159352998932681   T   T   T
  0.6265072873406776  0.9584698584275663  0.4167703762431488   T   T   T
  0.8739071528284762  0.7123217771714462  0.4192328910254521   T   T   T
  0.3759179876896401  0.2082398166263534  0.4177249935347872   T   T   T
  0.3794514023414021  0.7062403615794876  0.4197369411606311   T   T   T
  0.6279676479909572  0.4610832084649801  0.4165927595913770   T   T   T
  0.1228756998174801  0.7091619064668231  0.4178527348843344   T   T   T
  0.6259101133423585  0.2096293710917429  0.4154238009456940   T   T   T
  0.5477663670799667  0.3768164118731760  0.3151067228503114   T   T   T
  0.5338876841966235  0.1252080959732730  0.3122612446632884   T   T   T
  0.5522125408244705  0.1229980439735883  0.0492007837818207   F   F   F
  0.1179447475166739  0.4553776451871983  0.1279299605909117   F   F   F
  0.0472285584267957  0.1343890480929763  0.3117666240826407   T   T   T
  0.0331546293162290  0.1349486531119339  0.0377446314227257   F   F   F
  0.1316392841220875  0.9574759255143590  0.1340278734000009   F   F   F
  0.3736429055006754  0.4598312599630109  0.4186448590736568   T   T   T
  0.4566663465124705  0.5492648756265339  0.2193267658181810   F   F   F
  0.6260399453705395  0.7087087976702815  0.4179537300720730   T   T   T
  0.9558082579071581  0.7831430855589829  0.2183892191636332   F   F   F
  0.7979229399602374  0.6230168955916039  0.3172417947339725   T   T   T
  0.2904934777312781  0.6315277539716029  0.3153803965477178   T   T   T
  0.1986792080509545  0.2771687989594724  0.2254811289227305   F   F   F
  0.7045827475186641  0.5523289943798062  0.2213619481181794   F   F   F
  0.0409903667191724  0.6322755089721024  0.3204204233772253   T   T   T
  0.7920397940622550  0.8619624074885976  0.0511947968227275   F   F   F
  0.0526981245086802  0.8624210274643787  0.0444735392454518   F   F   F
  0.0457035805815948  0.6408036659206289  0.0458596178818169   F   F   F
  0.6280262762717825  0.2294732051187083  0.1337968902681794   F   F   F
  0.3825060135975420  0.9534483106544869  0.1327341964000013   F   F   F
  0.0357947759800869  0.3838760936401201  0.3213542293726077   T   T   T
  0.0161929607427993  0.3818764830379777  0.0412025564000018   F   F   F
  0.8704299207406763  0.2168907108715672  0.1317857703409118   F   F   F
  0.9563404382489509  0.5414389604039087  0.2237078816545477   F   F   F
  0.2986961490480457  0.1152160791387465  0.3191860750321047   T   T   T
  0.5411788238821468  0.6282744398855926  0.3202737163382878   T   T   T
  0.2929366193431733  0.1152265724702772  0.0453832930500013   F   F   F
  0.5520103083108907  0.6233459614553212  0.0478800615045429   F   F   F
  0.3057569488876624  0.3802645026968747  0.0468428708363646   F   F   F
  0.6239564555179768  0.9453132092873631  0.1363931434772709   F   F   F
  0.7083597009675202  0.7902410750572741  0.2210134316636356   F   F   F
  0.8605432662291435  0.6969997948958451  0.1321407462181838   F   F   F
  0.6280822250932729  0.4576845886507286  0.1300764273499979   F   F   F
  0.2983989656997291  0.8737929789478814  0.3179498867766335   T   T   T
  0.3062668485040945  0.8731072350821165  0.0445594179636331   F   F   F
  0.6226125853193309  0.7181745901936978  0.1307167480909115   F   F   F
  0.2304623798570589  0.0242330841830594  0.2276022954318151   F   F   F
  0.5428213397594490  0.3783856650780564  0.0401873396772743   F   F   F
  0.3772698501728584  0.2056045922453293  0.1374041287409113   F   F   F
  0.1480591264527078  0.7031483988334202  0.1372085456590924   F   F   F
  0.7035999555239911  0.0531163181998906  0.2207213082318162   F   F   F
  0.7937993838993541  0.1289426570351203  0.3140047838089124   T   T   T
  0.5403669426316166  0.8716784564539823  0.3163562147831245   T   T   T
  0.7916566268092922  0.1278317223843928  0.0406717152136338   F   F   F
  0.5477391611314957  0.8745077200413860  0.0407165425409062   F   F   F
  0.2081864432224165  0.5393639650818542  0.2229058860863660   F   F   F
  0.9479545332625037  0.3025804781289452  0.2228709549181787   F   F   F
  0.8695284713262765  0.9706931983749456  0.1330532267227298   F   F   F
  0.7178726439639220  0.2936926343421362  0.2256009570863640   F   F   F
  0.4565257253224786  0.2958654421023752  0.2224053839000035   F   F   F
  0.8724899802044774  0.4567009542507421  0.1303056939181815   F   F   F
  0.1243640075760553  0.2032220342603352  0.1319550582500000   F   F   F
  0.7873792025498005  0.6247287542742228  0.0440385979227287   F   F   F
  0.2993238400808877  0.6211331967054008  0.0480245963681796   F   F   F
  0.3856511081424543  0.7159506384289642  0.1307995094090941   F   F   F
  0.3847156394135922  0.4515386979644092  0.1311039896954540   F   F   F
  0.7937678341823881  0.3826421213221315  0.3188480333911848   T   T   T
  0.7893358288451608  0.3732859221083231  0.0438327165318171   F   F   F
  0.9536690361912719  0.0590088832448572  0.2213364501545456   F   F   F
  0.4606923424526741  0.7960359873835756  0.2256473434863651   F   F   F
  0.2223569724678214  0.7974698432936549  0.2249389915045441   F   F   F
  0.4608302578015682  0.0261812332914388  0.2241487908681847   F   F   F
  0.2854755594177451  0.8777196263997334  0.4585406211481641   T   T   T
 
  0.00000000E+00  0.00000000E+00  0.00000000E+00
  0.00000000E+00  0.00000000E+00  0.00000000E+00
  0.00000000E+00  0.00000000E+00  0.00000000E+00
  0.00000000E+00  0.00000000E+00  0.00000000E+00
  0.00000000E+00  0.00000000E+00  0.00000000E+00
  0.00000000E+00  0.00000000E+00  0.00000000E+00
  0.00000000E+00  0.00000000E+00  0.00000000E+00
  0.00000000E+00  0.00000000E+00  0.00000000E+00
  0.00000000E+00  0.00000000E+00  0.00000000E+00
  0.00000000E+00  0.00000000E+00  0.00000000E+00
  0.00000000E+00  0.00000000E+00  0.00000000E+00
  0.00000000E+00  0.00000000E+00  0.00000000E+00
  0.00000000E+00  0.00000000E+00  0.00000000E+00
  0.00000000E+00  0.00000000E+00  0.00000000E+00
  0.00000000E+00  0.00000000E+00  0.00000000E+00
  0.00000000E+00  0.00000000E+00  0.00000000E+00
  0.00000000E+00  0.00000000E+00  0.00000000E+00
  0.00000000E+00  0.00000000E+00  0.00000000E+00
  0.00000000E+00  0.00000000E+00  0.00000000E+00
  0.00000000E+00  0.00000000E+00  0.00000000E+00
  0.00000000E+00  0.00000000E+00  0.00000000E+00
  0.00000000E+00  0.00000000E+00  0.00000000E+00
  0.00000000E+00  0.00000000E+00  0.00000000E+00
  0.00000000E+00  0.00000000E+00  0.00000000E+00
  0.00000000E+00  0.00000000E+00  0.00000000E+00
  0.00000000E+00  0.00000000E+00  0.00000000E+00
  0.00000000E+00  0.00000000E+00  0.00000000E+00
  0.00000000E+00  0.00000000E+00  0.00000000E+00
  0.00000000E+00  0.00000000E+00  0.00000000E+00
  0.00000000E+00  0.00000000E+00  0.00000000E+00
  0.00000000E+00  0.00000000E+00  0.00000000E+00
  0.00000000E+00  0.00000000E+00  0.00000000E+00
  0.00000000E+00  0.00000000E+00  0.00000000E+00
  0.00000000E+00  0.00000000E+00  0.00000000E+00
  0.00000000E+00  0.00000000E+00  0.00000000E+00
  0.00000000E+00  0.00000000E+00  0.00000000E+00
  0.00000000E+00  0.00000000E+00  0.00000000E+00
  0.00000000E+00  0.00000000E+00  0.00000000E+00
  0.00000000E+00  0.00000000E+00  0.00000000E+00
  0.00000000E+00  0.00000000E+00  0.00000000E+00
  0.00000000E+00  0.00000000E+00  0.00000000E+00
  0.00000000E+00  0.00000000E+00  0.00000000E+00
  0.00000000E+00  0.00000000E+00  0.00000000E+00
  0.00000000E+00  0.00000000E+00  0.00000000E+00
  0.00000000E+00  0.00000000E+00  0.00000000E+00
  0.00000000E+00  0.00000000E+00  0.00000000E+00
  0.00000000E+00  0.00000000E+00  0.00000000E+00
  0.00000000E+00  0.00000000E+00  0.00000000E+00
  0.00000000E+00  0.00000000E+00  0.00000000E+00
  0.00000000E+00  0.00000000E+00  0.00000000E+00
  0.00000000E+00  0.00000000E+00  0.00000000E+00
  0.00000000E+00  0.00000000E+00  0.00000000E+00
  0.00000000E+00  0.00000000E+00  0.00000000E+00
  0.00000000E+00  0.00000000E+00  0.00000000E+00
  0.00000000E+00  0.00000000E+00  0.00000000E+00
  0.00000000E+00  0.00000000E+00  0.00000000E+00
  0.00000000E+00  0.00000000E+00  0.00000000E+00
  0.00000000E+00  0.00000000E+00  0.00000000E+00
  0.00000000E+00  0.00000000E+00  0.00000000E+00
  0.00000000E+00  0.00000000E+00  0.00000000E+00
  0.00000000E+00  0.00000000E+00  0.00000000E+00
  0.00000000E+00  0.00000000E+00  0.00000000E+00
  0.00000000E+00  0.00000000E+00  0.00000000E+00
  0.00000000E+00  0.00000000E+00  0.00000000E+00
  0.00000000E+00  0.00000000E+00  0.00000000E+00
  0.00000000E+00  0.00000000E+00  0.00000000E+00
  0.00000000E+00  0.00000000E+00  0.00000000E+00
  0.00000000E+00  0.00000000E+00  0.00000000E+00
  0.00000000E+00  0.00000000E+00  0.00000000E+00
  0.00000000E+00  0.00000000E+00  0.00000000E+00
  0.00000000E+00  0.00000000E+00  0.00000000E+00
  0.00000000E+00  0.00000000E+00  0.00000000E+00
  0.00000000E+00  0.00000000E+00  0.00000000E+00
  0.00000000E+00  0.00000000E+00  0.00000000E+00
  0.00000000E+00  0.00000000E+00  0.00000000E+00
  0.00000000E+00  0.00000000E+00  0.00000000E+00
  0.00000000E+00  0.00000000E+00  0.00000000E+00
  0.00000000E+00  0.00000000E+00  0.00000000E+00
  0.00000000E+00  0.00000000E+00  0.00000000E+00
  0.00000000E+00  0.00000000E+00  0.00000000E+00
  0.00000000E+00  0.00000000E+00  0.00000000E+00
