10.76                                   
   1.00000000000000     
    10.7600002288999992    0.0000000000000000    0.0000000000000000
     5.3800001143999996    9.3184335428999994    0.0000000000000000
     0.0000000000000000    0.0000000000000000   22.0000000000000000
   Pt   Fe   Co   Cu   Ni   H 
    32    13    10    13    12     1
Selective dynamics
Direct
  0.7868825177438954  0.8782139467630848  0.3160226255060504   T   T   T
  0.0425530377677798  0.8821730080044896  0.3136305835369555   T   T   T
  0.2787348208786574  0.3805466626980367  0.3181048969815080   T   T   T
  0.8739124120646697  0.9632290722413449  0.4197216079554061   T   T   T
  0.1247815615530994  0.4610657207648666  0.4256496279894505   T   T   T
  0.1244647528526976  0.9619438605596584  0.4182948534067959   T   T   T
  0.8723835548063660  0.4572500624239201  0.4243919584666170   T   T   T
  0.3738729011738193  0.9603322824603363  0.4180585830858650   T   T   T
  0.8731141962219122  0.2110097334991651  0.4172638437854463   T   T   T
  0.1266420786922362  0.2091556672310855  0.4189990460975127   T   T   T
  0.6234247549721812  0.9609608888832925  0.4203955855773961   T   T   T
  0.8709881643824562  0.7156813559855179  0.4246079145367166   T   T   T
  0.3747169682217735  0.2089961156176184  0.4214692710603011   T   T   T
  0.3754791610953206  0.7124154012348669  0.4207715856873918   T   T   T
  0.6249119995037770  0.4620392421528063  0.4193580524161378   T   T   T
  0.1249306292585072  0.7123801886147484  0.4219894804126892   T   T   T
  0.6246178531739370  0.2103961448093451  0.4190298570741902   T   T   T
  0.5478574086498138  0.3751466601523537  0.3159770243814678   T   T   T
  0.5341713834399656  0.1245439086254359  0.3138501447352036   T   T   T
  0.5479267310515752  0.1232892167026662  0.0438354440136379   F   F   F
  0.1193453373624038  0.4597245861096511  0.1287449583545452   F   F   F
  0.0438304759921810  0.1364153257571772  0.3129561566839113   T   T   T
  0.0408040871490059  0.1311498911028011  0.0353636510090922   F   F   F
  0.1313044783091684  0.9579990200822763  0.1330364317545474   F   F   F
  0.3741169330265399  0.4614057460434711  0.4227061402808474   T   T   T
  0.4554859481779090  0.5468658091233323  0.2192060685090880   F   F   F
  0.6195126199213048  0.7129410313550908  0.4202593966693722   T   T   T
  0.9556912742960080  0.7873506540045199  0.2205031624227303   F   F   F
  0.7961026321823128  0.6220705431109054  0.3184347197214922   T   T   T
  0.2909696144049121  0.6309658794953741  0.3169510171635234   T   T   T
  0.2012375110298592  0.2788553671104808  0.2253960259409098   F   F   F
  0.7053132991228281  0.5507170639758527  0.2210761596681792   F   F   F
  0.0406878628779607  0.6309352443200095  0.3237027733864313   T   T   T
  0.7954783082485406  0.8611238289308787  0.0457152006545485   F   F   F
  0.0575212550804594  0.8641789042575354  0.0409535455772740   F   F   F
  0.0456084242478454  0.6318179268537989  0.0403526911181800   F   F   F
  0.6278305598418541  0.2253448316750593  0.1304824814136367   F   F   F
  0.3825655044668324  0.9535177246255060  0.1314263805090903   F   F   F
  0.0353906749895173  0.3836681540575443  0.3233405086467735   T   T   T
  0.0260615386681806  0.3810885896595479  0.0403102601590888   F   F   F
  0.8723711723195962  0.2151287605659249  0.1298020397499968   F   F   F
  0.9547335530667951  0.5442973253336660  0.2239073203045479   F   F   F
  0.2972651221461511  0.1153206923635901  0.3199720746149429   T   T   T
  0.5407618789809150  0.6286917573725820  0.3208367389891622   T   T   T
  0.2949751593484535  0.1163516447918553  0.0426677318909086   F   F   F
  0.5497857468387153  0.6253450526821567  0.0461306137818198   F   F   F
  0.2969566052389681  0.3823652154298856  0.0422564458500005   F   F   F
  0.6249458186425088  0.9474812472239122  0.1336582942090914   F   F   F
  0.7073783254117956  0.7925741239553403  0.2204095770727292   F   F   F
  0.8643637461216613  0.7029606029106716  0.1299859167545421   F   F   F
  0.6269787784890184  0.4592523668595234  0.1284489634045443   F   F   F
  0.2976111793849138  0.8747452197579855  0.3176112726187335   T   T   T
  0.3071779756071464  0.8685022953526769  0.0426992808000008   F   F   F
  0.6259846636109003  0.7158394751425234  0.1294188900181794   F   F   F
  0.2263697746008830  0.0265762640963061  0.2277658617318181   F   F   F
  0.5422786776051893  0.3823649547208277  0.0372911256318176   F   F   F
  0.3770236217526488  0.2055569132388655  0.1342270989136338   F   F   F
  0.1386540919502792  0.7046558401978444  0.1337982367227255   F   F   F
  0.7044384733601134  0.0510072048817847  0.2203902870818197   F   F   F
  0.7927923175466419  0.1291170972637062  0.3156003138302511   T   T   T
  0.5389709220576031  0.8726538170689458  0.3163455566516697   T   T   T
  0.7964640097093465  0.1229298524077365  0.0375270880681811   F   F   F
  0.5453781290973083  0.8713405885677545  0.0381163191590943   F   F   F
  0.2079968609143066  0.5423612536627189  0.2238731068772708   F   F   F
  0.9502517692622092  0.2988565663079612  0.2218493459999991   F   F   F
  0.8721394008204939  0.9645445904637313  0.1305576548363661   F   F   F
  0.7160608076910577  0.2907946614444299  0.2240872102636331   F   F   F
  0.4572063303243468  0.2931434561747039  0.2211508691681843   F   F   F
  0.8746667074118193  0.4568803762026974  0.1294246137636392   F   F   F
  0.1274815274220984  0.2065411393920868  0.1296872253999979   F   F   F
  0.7912047277638123  0.6211097396096008  0.0422462150454521   F   F   F
  0.2978218131850454  0.6268259632060662  0.0450505997681816   F   F   F
  0.3863157406502253  0.7128529518634892  0.1302027574090943   F   F   F
  0.3822704936785541  0.4518886614165325  0.1282433244909100   F   F   F
  0.7928903794422125  0.3804322407061915  0.3195169948022322   T   T   T
  0.7914440065378301  0.3765222275125097  0.0417798686954569   F   F   F
  0.9554123354930013  0.0542452715977291  0.2215384381590937   F   F   F
  0.4587321815542893  0.7962888195681401  0.2253854676772704   F   F   F
  0.2158448670038950  0.7978226494907545  0.2248111195227267   F   F   F
  0.4616344529792542  0.0286802995342086  0.2228021754681819   F   F   F
  0.9566724543350948  0.5463257924340829  0.4688868700846073   T   T   T
 
  0.00000000E+00  0.00000000E+00  0.00000000E+00
  0.00000000E+00  0.00000000E+00  0.00000000E+00
  0.00000000E+00  0.00000000E+00  0.00000000E+00
  0.00000000E+00  0.00000000E+00  0.00000000E+00
  0.00000000E+00  0.00000000E+00  0.00000000E+00
  0.00000000E+00  0.00000000E+00  0.00000000E+00
  0.00000000E+00  0.00000000E+00  0.00000000E+00
  0.00000000E+00  0.00000000E+00  0.00000000E+00
  0.00000000E+00  0.00000000E+00  0.00000000E+00
  0.00000000E+00  0.00000000E+00  0.00000000E+00
  0.00000000E+00  0.00000000E+00  0.00000000E+00
  0.00000000E+00  0.00000000E+00  0.00000000E+00
  0.00000000E+00  0.00000000E+00  0.00000000E+00
  0.00000000E+00  0.00000000E+00  0.00000000E+00
  0.00000000E+00  0.00000000E+00  0.00000000E+00
  0.00000000E+00  0.00000000E+00  0.00000000E+00
  0.00000000E+00  0.00000000E+00  0.00000000E+00
  0.00000000E+00  0.00000000E+00  0.00000000E+00
  0.00000000E+00  0.00000000E+00  0.00000000E+00
  0.00000000E+00  0.00000000E+00  0.00000000E+00
  0.00000000E+00  0.00000000E+00  0.00000000E+00
  0.00000000E+00  0.00000000E+00  0.00000000E+00
  0.00000000E+00  0.00000000E+00  0.00000000E+00
  0.00000000E+00  0.00000000E+00  0.00000000E+00
  0.00000000E+00  0.00000000E+00  0.00000000E+00
  0.00000000E+00  0.00000000E+00  0.00000000E+00
  0.00000000E+00  0.00000000E+00  0.00000000E+00
  0.00000000E+00  0.00000000E+00  0.00000000E+00
  0.00000000E+00  0.00000000E+00  0.00000000E+00
  0.00000000E+00  0.00000000E+00  0.00000000E+00
  0.00000000E+00  0.00000000E+00  0.00000000E+00
  0.00000000E+00  0.00000000E+00  0.00000000E+00
  0.00000000E+00  0.00000000E+00  0.00000000E+00
  0.00000000E+00  0.00000000E+00  0.00000000E+00
  0.00000000E+00  0.00000000E+00  0.00000000E+00
  0.00000000E+00  0.00000000E+00  0.00000000E+00
  0.00000000E+00  0.00000000E+00  0.00000000E+00
  0.00000000E+00  0.00000000E+00  0.00000000E+00
  0.00000000E+00  0.00000000E+00  0.00000000E+00
  0.00000000E+00  0.00000000E+00  0.00000000E+00
  0.00000000E+00  0.00000000E+00  0.00000000E+00
  0.00000000E+00  0.00000000E+00  0.00000000E+00
  0.00000000E+00  0.00000000E+00  0.00000000E+00
  0.00000000E+00  0.00000000E+00  0.00000000E+00
  0.00000000E+00  0.00000000E+00  0.00000000E+00
  0.00000000E+00  0.00000000E+00  0.00000000E+00
  0.00000000E+00  0.00000000E+00  0.00000000E+00
  0.00000000E+00  0.00000000E+00  0.00000000E+00
  0.00000000E+00  0.00000000E+00  0.00000000E+00
  0.00000000E+00  0.00000000E+00  0.00000000E+00
  0.00000000E+00  0.00000000E+00  0.00000000E+00
  0.00000000E+00  0.00000000E+00  0.00000000E+00
  0.00000000E+00  0.00000000E+00  0.00000000E+00
  0.00000000E+00  0.00000000E+00  0.00000000E+00
  0.00000000E+00  0.00000000E+00  0.00000000E+00
  0.00000000E+00  0.00000000E+00  0.00000000E+00
  0.00000000E+00  0.00000000E+00  0.00000000E+00
  0.00000000E+00  0.00000000E+00  0.00000000E+00
  0.00000000E+00  0.00000000E+00  0.00000000E+00
  0.00000000E+00  0.00000000E+00  0.00000000E+00
  0.00000000E+00  0.00000000E+00  0.00000000E+00
  0.00000000E+00  0.00000000E+00  0.00000000E+00
  0.00000000E+00  0.00000000E+00  0.00000000E+00
  0.00000000E+00  0.00000000E+00  0.00000000E+00
  0.00000000E+00  0.00000000E+00  0.00000000E+00
  0.00000000E+00  0.00000000E+00  0.00000000E+00
  0.00000000E+00  0.00000000E+00  0.00000000E+00
  0.00000000E+00  0.00000000E+00  0.00000000E+00
  0.00000000E+00  0.00000000E+00  0.00000000E+00
  0.00000000E+00  0.00000000E+00  0.00000000E+00
  0.00000000E+00  0.00000000E+00  0.00000000E+00
  0.00000000E+00  0.00000000E+00  0.00000000E+00
  0.00000000E+00  0.00000000E+00  0.00000000E+00
  0.00000000E+00  0.00000000E+00  0.00000000E+00
  0.00000000E+00  0.00000000E+00  0.00000000E+00
  0.00000000E+00  0.00000000E+00  0.00000000E+00
  0.00000000E+00  0.00000000E+00  0.00000000E+00
  0.00000000E+00  0.00000000E+00  0.00000000E+00
  0.00000000E+00  0.00000000E+00  0.00000000E+00
  0.00000000E+00  0.00000000E+00  0.00000000E+00
  0.00000000E+00  0.00000000E+00  0.00000000E+00
