Pt   H                                  
   1.00000000000000     
    11.2227001190000006    0.0000000000000000    0.0000000000000000
     5.6113500595000003    9.7191434021000003    0.0000000000000000
     0.0000000000000000    0.0000000000000000   22.0000000000000000
   Pt   H 
    80    17
Direct
  0.7856909384928115  0.8694581037766297  0.3263807986286792
  0.0355972245570937  0.8693043987785956  0.3265071362769826
  0.0356774894583077  0.6194345577178165  0.3264254578825795
  0.7852029510823979  0.8690668002260931  0.0211688630923882
  0.0349514961261033  0.8689743782258457  0.0215051753287860
  0.0350501100546489  0.6192598732148605  0.0214693244308681
  0.6186366846626044  0.2024132529672413  0.1246816895882824
  0.3685461441828616  0.9525510564569353  0.1247054347748502
  0.0358155954892581  0.3693630369849635  0.3266706708836735
  0.0356102810367838  0.3682780955326960  0.0216871463460399
  0.8686727861009392  0.2023674190862839  0.1247558365387262
  0.9522008108173130  0.5357416883829966  0.2249500297514347
  0.2856341336527272  0.1195454009638430  0.3266826444883374
  0.5360356032546483  0.6196874094741636  0.3255615786750741
  0.2850587945256270  0.3687830268250656  0.3257825625474720
  0.2843509024621098  0.1194591011871775  0.0217475736249274
  0.5351726712418734  0.6188717134650422  0.0213336792119123
  0.2851219044296400  0.3689756921696199  0.0213463019732966
  0.6186952865065920  0.9524027925615782  0.1246967171780319
  0.7021653284795859  0.7858833122493475  0.2248083802619140
  0.8686365917491973  0.7024796844522483  0.1246773892169823
  0.6188853787277475  0.4523058041745818  0.1245644935575480
  0.2850274796161150  0.8706235207874767  0.3258650678746801
  0.2851486776660190  0.8691193382871016  0.0213732021723493
  0.6186055413476135  0.7024507218434723  0.1246316951915249
  0.2023562397562827  0.0352670416911684  0.2252649009548360
  0.8694850269017087  0.9530639126841035  0.4323714528115703
  0.1203060754673088  0.4531906403327727  0.4323964848055276
  0.1199419749257027  0.9523298905480930  0.4326256051009342
  0.8690076085587431  0.4530390460891527  0.4324057083211926
  0.3694878819315141  0.9525648346682802  0.4323622195010042
  0.8686501451624391  0.2035722748688686  0.4326353614536826
  0.1193511340374707  0.2030225931727395  0.4325107811430219
  0.6192720964843832  0.9533709457360610  0.4322934568229858
  0.8697274053959290  0.7028715613489624  0.4322967623780370
  0.3695477364376993  0.2039345973826123  0.4324537925851428
  0.3709977596253615  0.7000089115374438  0.4294760261839400
  0.6162777309098976  0.4547525742217158  0.4296588896107895
  0.1214802075743269  0.7020445729702447  0.4326415076456765
  0.6183348420125929  0.2051566680366183  0.4326521112593987
  0.5357164337835152  0.3689883168414316  0.3257376976924925
  0.5352170168279102  0.3690649791497652  0.0213771600989194
  0.5357890558341910  0.1193185709424676  0.3264395954431565
  0.5354768173407856  0.1188007524985186  0.0214763534208682
  0.8688260701084847  0.4522457929436854  0.1246960818825585
  0.1185805682410346  0.4524566197039296  0.1246757860457807
  0.0356227974846876  0.1192560049876436  0.3267911420927136
  0.0356128084691097  0.1194711453431259  0.0218284209103581
  0.1185507971702709  0.9524574568815306  0.1247487517872001
  0.3713571424498052  0.4550764003494078  0.4301408232621751
  0.4520732569200467  0.5359152753193280  0.2244898588315572
  0.6186314033815790  0.7023045157079547  0.4321127474057698
  0.3686923457953296  0.2023865559854008  0.1246552216634976
  0.1185682066936379  0.2024578383768193  0.1256588532127469
  0.9519849141761476  0.7858618380999617  0.2248733446410908
  0.7859509997790087  0.6194559552435710  0.3263469228224702
  0.2852173927254243  0.6194220299352134  0.3257085570764215
  0.7850950807317092  0.6193249503470420  0.0215688658939276
  0.2852900852188897  0.6191080766276834  0.0214255238871289
  0.3685470740495123  0.7026784145965217  0.1245377203538250
  0.3685627935954079  0.4522720165687418  0.1245123208799983
  0.2023403241205106  0.2860088374770673  0.2250598347233300
  0.7867747419698863  0.3688128362822961  0.3259485737977895
  0.7851879333314390  0.3690215512118326  0.0213731936300287
  0.9520496459747444  0.0358750828364655  0.2251120759118746
  0.4524331513445412  0.7856642327395669  0.2247551704048145
  0.7019596407830188  0.5361423801240250  0.2247426475629949
  0.2019394832540711  0.7856778795168303  0.2247746182854394
  0.4519428862922749  0.0360416663036343  0.2249488696066181
  0.1185694093773659  0.7024687982557282  0.1246662003100624
  0.7021153116386599  0.0357839226476189  0.2248669773691566
  0.7855454670393732  0.1193473734961506  0.3265336806696466
  0.5357826552488414  0.8696605956209845  0.3263247125739003
  0.7851702212676930  0.1187157614109832  0.0215895040288812
  0.5353982696506336  0.8689384833721775  0.0215270356695634
  0.2020528362797746  0.5361861125145693  0.2247530148659325
  0.9514314416509004  0.2861420782506875  0.2253292178959761
  0.8686686303024338  0.9523442259612239  0.1247658582395178
  0.7019418457171187  0.2856888003433794  0.2247980882137572
  0.4524594637256428  0.2858299662833146  0.2247892791367173
  0.4536924260903665  0.5345177418579469  0.5300131159067074
  0.4877578021251109  0.5584649380261333  0.5529271494890803
  0.7038224523385254  0.5374587225364589  0.4724904591946265
  0.2038353937890319  0.7857983384035978  0.4727195544637276
  0.4536400607968668  0.7868585851342111  0.4724170551749988
  0.7025892043909201  0.7862370691462650  0.4725794524509364
  0.9532717817150251  0.7858823580629180  0.4728315593312989
  0.2059341539640971  0.5351483726363340  0.4728169012804159
  0.9531228905676067  0.5364659943181638  0.4729482422428090
  0.2028334748022004  0.2864457223340464  0.4731927846274173
  0.4515122180637919  0.2895588514108184  0.4728282756154568
  0.7024035379025215  0.2871154621976551  0.4727468864589193
  0.9521742375070851  0.2864953017526795  0.4733715723744391
  0.2029228708400245  0.0357966748474845  0.4733355230523667
  0.4529176321528444  0.0366658489500328  0.4729472200738760
  0.7023360128564420  0.0368581468664011  0.4728174130280461
  0.9524821665262505  0.0360307673283038  0.4731809471279377
 
             NaN             NaN             NaN
             NaN             NaN             NaN
             NaN             NaN             NaN
             NaN             NaN             NaN
             NaN             NaN             NaN
             NaN             NaN             NaN
             NaN             NaN             NaN
             NaN             NaN             NaN
             NaN             NaN             NaN
             NaN             NaN             NaN
             NaN             NaN             NaN
             NaN             NaN             NaN
             NaN             NaN             NaN
             NaN             NaN             NaN
             NaN             NaN             NaN
             NaN             NaN             NaN
             NaN             NaN             NaN
             NaN             NaN             NaN
             NaN             NaN             NaN
             NaN             NaN             NaN
             NaN             NaN             NaN
             NaN             NaN             NaN
             NaN             NaN             NaN
             NaN             NaN             NaN
             NaN             NaN             NaN
             NaN             NaN             NaN
             NaN             NaN             NaN
             NaN             NaN             NaN
             NaN             NaN             NaN
             NaN             NaN             NaN
             NaN             NaN             NaN
             NaN             NaN             NaN
             NaN             NaN             NaN
             NaN             NaN             NaN
             NaN             NaN             NaN
             NaN             NaN             NaN
             NaN             NaN             NaN
             NaN             NaN             NaN
             NaN             NaN             NaN
             NaN             NaN             NaN
             NaN             NaN             NaN
             NaN             NaN             NaN
             NaN             NaN             NaN
             NaN             NaN             NaN
             NaN             NaN             NaN
             NaN             NaN             NaN
             NaN             NaN             NaN
             NaN             NaN             NaN
             NaN             NaN             NaN
             NaN             NaN             NaN
             NaN             NaN             NaN
             NaN             NaN             NaN
             NaN             NaN             NaN
             NaN             NaN             NaN
             NaN             NaN             NaN
             NaN             NaN             NaN
             NaN             NaN             NaN
             NaN             NaN             NaN
             NaN             NaN             NaN
             NaN             NaN             NaN
             NaN             NaN             NaN
             NaN             NaN             NaN
             NaN             NaN             NaN
             NaN             NaN             NaN
             NaN             NaN             NaN
             NaN             NaN             NaN
             NaN             NaN             NaN
             NaN             NaN             NaN
             NaN             NaN             NaN
             NaN             NaN             NaN
             NaN             NaN             NaN
             NaN             NaN             NaN
             NaN             NaN             NaN
             NaN             NaN             NaN
             NaN             NaN             NaN
             NaN             NaN             NaN
             NaN             NaN             NaN
             NaN             NaN             NaN
             NaN             NaN             NaN
             NaN             NaN             NaN
             NaN             NaN             NaN
             NaN             NaN             NaN
             NaN             NaN             NaN
             NaN             NaN             NaN
             NaN             NaN             NaN
             NaN             NaN             NaN
             NaN             NaN             NaN
             NaN             NaN             NaN
             NaN             NaN             NaN
             NaN             NaN             NaN
             NaN             NaN             NaN
             NaN             NaN             NaN
             NaN             NaN             NaN
             NaN             NaN             NaN
             NaN             NaN             NaN
             NaN             NaN             NaN
             NaN             NaN             NaN
