PtM\(2)                                 
   1.00000000000000     
    10.5600004195999997    0.0000000000000000    0.0000000000000000
     5.2800002097999998    9.1452286273999999    0.0000000000000000
     0.0000000000000000    0.0000000000000000   22.0000000000000000
   Ni   Pt
    64    16
Direct
  0.7844459721822628  0.8692383842739587  0.3111414975875689
  0.0345341895594525  0.8693252439771332  0.3111848569713327
  0.0345738536914861  0.6194381829247920  0.3112702124803405
  0.7874164227978053  0.8671974162773045  0.0507952848121833
  0.0371812071062564  0.8676186467831074  0.0508907119886630
  0.0374684841718046  0.6171956253452893  0.0509625431281121
  0.6195540567100496  0.2015927253990977  0.1375472916648297
  0.3695075232141946  0.9518242491052478  0.1375177793304311
  0.0344790895132747  0.3693685075217720  0.3112819193871788
  0.0370441529466619  0.3679087439478316  0.0510122538344222
  0.8696832728292460  0.2017788834112094  0.1375957440096332
  0.9518479139061456  0.5357999448821568  0.2253601697375165
  0.2848370990072594  0.1190967789816956  0.3113006857030000
  0.5345425121852696  0.6195210126324379  0.3112663096393725
  0.2847703740229062  0.3692903814651556  0.3113310051092490
  0.2865437969599859  0.1185517643924621  0.0509036111838149
  0.5363140996777171  0.6178282872389526  0.0507770374973300
  0.2861704337189215  0.3683748117341294  0.0510002003856328
  0.6196234901508366  0.9517335769873240  0.1373589130312274
  0.7016830926800510  0.7855906990899194  0.2250553664363882
  0.8696404259987223  0.7014772441217489  0.1376145676594734
  0.6196299645986552  0.4516165522473383  0.1375203790892680
  0.2848890529435936  0.8691728519387014  0.3112653424670223
  0.2865937880619692  0.8680734555907220  0.0508346510301407
  0.6194335686701641  0.7016555716455811  0.1373394372985932
  0.2022862467208012  0.0354600245178659  0.2252454040393975
  0.5347446363178686  0.3694448817332081  0.3112294507150521
  0.5363670832481401  0.3680933396926606  0.0508732332081006
  0.5347020788661442  0.1191862937029581  0.3112214240213769
  0.5357740562827986  0.1186998764463621  0.0508076041795848
  0.8695889210839535  0.4517664038739133  0.1377370143931570
  0.1194625732180058  0.4516968078525009  0.1379299702154448
  0.0346447410753312  0.1191559284936717  0.3111638192219509
  0.0372294765957792  0.1183068973710898  0.0509084329404952
  0.1194236500879772  0.9519185222953132  0.1376218898496518
  0.4519772552446347  0.5358086563163493  0.2252189338506872
  0.3693977441775770  0.2019043691546269  0.1377741168544420
  0.1196225089455843  0.2018141881601249  0.1378220913341822
  0.9518865415260518  0.7856463243370755  0.2252025326439990
  0.7843227877650658  0.6195501871584130  0.3112310959747341
  0.2847041803065457  0.6193805075428787  0.3113091288973301
  0.7873265514061059  0.6175143423331968  0.0508263513321078
  0.2865996923035496  0.6174998734441082  0.0509254706580171
  0.3692545354159935  0.7017889581157072  0.1375475984366120
  0.3695484132075828  0.4516338335065984  0.1377474529800104
  0.2021559934571742  0.2855432423225835  0.2254537230889389
  0.7844600314469167  0.3694494830576719  0.3111631833895190
  0.7871940568906302  0.3681532496403000  0.0508772485756372
  0.9520546995059499  0.0355553831478974  0.2251181590645764
  0.4519866132292691  0.7855964390800255  0.2251024037646653
  0.7017585083626799  0.5358376169462039  0.2251704601723389
  0.2020535028413028  0.7856430637562666  0.2252516525040997
  0.4521557239639741  0.0354153273624402  0.2251855659215571
  0.1194697833165583  0.7016886593424724  0.1377196208049419
  0.7019619126087074  0.0354819123261459  0.2250876208462585
  0.7845456698507401  0.1193228393281563  0.3110792219275906
  0.5346179410457174  0.8691937585931182  0.3112257156063251
  0.7868336547288802  0.1183080422142663  0.0508386848127399
  0.5365155299918158  0.8682561142268310  0.0507168413213817
  0.2020976289944361  0.5356761872773045  0.2253870675472936
  0.9520051380630576  0.2856720189377437  0.2252576548618187
  0.8694806842625132  0.9517801275744381  0.1375034099188636
  0.7019638037117987  0.2857215131717486  0.2250968073785964
  0.4521582201914913  0.2855629718999965  0.2252955480436651
  0.8673260003351726  0.9530110714202693  0.4083023143380796
  0.1172461506507696  0.4530481674933907  0.4085655361352856
  0.1172115929062569  0.9529174658463805  0.4084051442846598
  0.8672066276485627  0.4529926890286506  0.4084528919850832
  0.3672723898063318  0.9529408786545743  0.4085898016337906
  0.8672059349703450  0.2030298320940440  0.4083001919699145
  0.1173292588460269  0.2029039974878675  0.4084710490221998
  0.6173882443837819  0.9529918474860214  0.4084209695675166
  0.8670490053540429  0.7031368368915681  0.4084593106087727
  0.3673816812688017  0.2027883295898576  0.4085894491393854
  0.3674130118833341  0.7029981443402524  0.4086128535823362
  0.6172614161347657  0.4529343916483404  0.4084803358979680
  0.1173320534513360  0.7029518633417292  0.4085396834909227
  0.6172745822897099  0.2029610683876145  0.4083751299907626
  0.3672598648037020  0.4529849443102944  0.4086143751735016
  0.6173022637032597  0.7029794288098601  0.4085394834199587
 
  0.00000000E+00  0.00000000E+00  0.00000000E+00
  0.00000000E+00  0.00000000E+00  0.00000000E+00
  0.00000000E+00  0.00000000E+00  0.00000000E+00
  0.00000000E+00  0.00000000E+00  0.00000000E+00
  0.00000000E+00  0.00000000E+00  0.00000000E+00
  0.00000000E+00  0.00000000E+00  0.00000000E+00
  0.00000000E+00  0.00000000E+00  0.00000000E+00
  0.00000000E+00  0.00000000E+00  0.00000000E+00
  0.00000000E+00  0.00000000E+00  0.00000000E+00
  0.00000000E+00  0.00000000E+00  0.00000000E+00
  0.00000000E+00  0.00000000E+00  0.00000000E+00
  0.00000000E+00  0.00000000E+00  0.00000000E+00
  0.00000000E+00  0.00000000E+00  0.00000000E+00
  0.00000000E+00  0.00000000E+00  0.00000000E+00
  0.00000000E+00  0.00000000E+00  0.00000000E+00
  0.00000000E+00  0.00000000E+00  0.00000000E+00
  0.00000000E+00  0.00000000E+00  0.00000000E+00
  0.00000000E+00  0.00000000E+00  0.00000000E+00
  0.00000000E+00  0.00000000E+00  0.00000000E+00
  0.00000000E+00  0.00000000E+00  0.00000000E+00
  0.00000000E+00  0.00000000E+00  0.00000000E+00
  0.00000000E+00  0.00000000E+00  0.00000000E+00
  0.00000000E+00  0.00000000E+00  0.00000000E+00
  0.00000000E+00  0.00000000E+00  0.00000000E+00
  0.00000000E+00  0.00000000E+00  0.00000000E+00
  0.00000000E+00  0.00000000E+00  0.00000000E+00
  0.00000000E+00  0.00000000E+00  0.00000000E+00
  0.00000000E+00  0.00000000E+00  0.00000000E+00
  0.00000000E+00  0.00000000E+00  0.00000000E+00
  0.00000000E+00  0.00000000E+00  0.00000000E+00
  0.00000000E+00  0.00000000E+00  0.00000000E+00
  0.00000000E+00  0.00000000E+00  0.00000000E+00
  0.00000000E+00  0.00000000E+00  0.00000000E+00
  0.00000000E+00  0.00000000E+00  0.00000000E+00
  0.00000000E+00  0.00000000E+00  0.00000000E+00
  0.00000000E+00  0.00000000E+00  0.00000000E+00
  0.00000000E+00  0.00000000E+00  0.00000000E+00
  0.00000000E+00  0.00000000E+00  0.00000000E+00
  0.00000000E+00  0.00000000E+00  0.00000000E+00
  0.00000000E+00  0.00000000E+00  0.00000000E+00
  0.00000000E+00  0.00000000E+00  0.00000000E+00
  0.00000000E+00  0.00000000E+00  0.00000000E+00
  0.00000000E+00  0.00000000E+00  0.00000000E+00
  0.00000000E+00  0.00000000E+00  0.00000000E+00
  0.00000000E+00  0.00000000E+00  0.00000000E+00
  0.00000000E+00  0.00000000E+00  0.00000000E+00
  0.00000000E+00  0.00000000E+00  0.00000000E+00
  0.00000000E+00  0.00000000E+00  0.00000000E+00
  0.00000000E+00  0.00000000E+00  0.00000000E+00
  0.00000000E+00  0.00000000E+00  0.00000000E+00
  0.00000000E+00  0.00000000E+00  0.00000000E+00
  0.00000000E+00  0.00000000E+00  0.00000000E+00
  0.00000000E+00  0.00000000E+00  0.00000000E+00
  0.00000000E+00  0.00000000E+00  0.00000000E+00
  0.00000000E+00  0.00000000E+00  0.00000000E+00
  0.00000000E+00  0.00000000E+00  0.00000000E+00
  0.00000000E+00  0.00000000E+00  0.00000000E+00
  0.00000000E+00  0.00000000E+00  0.00000000E+00
  0.00000000E+00  0.00000000E+00  0.00000000E+00
  0.00000000E+00  0.00000000E+00  0.00000000E+00
  0.00000000E+00  0.00000000E+00  0.00000000E+00
  0.00000000E+00  0.00000000E+00  0.00000000E+00
  0.00000000E+00  0.00000000E+00  0.00000000E+00
  0.00000000E+00  0.00000000E+00  0.00000000E+00
  0.00000000E+00  0.00000000E+00  0.00000000E+00
  0.00000000E+00  0.00000000E+00  0.00000000E+00
  0.00000000E+00  0.00000000E+00  0.00000000E+00
  0.00000000E+00  0.00000000E+00  0.00000000E+00
  0.00000000E+00  0.00000000E+00  0.00000000E+00
  0.00000000E+00  0.00000000E+00  0.00000000E+00
  0.00000000E+00  0.00000000E+00  0.00000000E+00
  0.00000000E+00  0.00000000E+00  0.00000000E+00
  0.00000000E+00  0.00000000E+00  0.00000000E+00
  0.00000000E+00  0.00000000E+00  0.00000000E+00
  0.00000000E+00  0.00000000E+00  0.00000000E+00
  0.00000000E+00  0.00000000E+00  0.00000000E+00
  0.00000000E+00  0.00000000E+00  0.00000000E+00
  0.00000000E+00  0.00000000E+00  0.00000000E+00
  0.00000000E+00  0.00000000E+00  0.00000000E+00
  0.00000000E+00  0.00000000E+00  0.00000000E+00
