Pt   H                                  
   1.00000000000000     
    11.2227001190000006    0.0000000000000000    0.0000000000000000
     5.6113500595000003    9.7191434021000003    0.0000000000000000
     0.0000000000000000    0.0000000000000000   22.0000000000000000
   Pt   H 
    80     2
Selective dynamics
Direct
  0.7851256882424664  0.8691446555850604  0.3269033569545456   F   F   F
  0.0350753166876387  0.8689392199085404  0.3272352468090887   F   F   F
  0.0354780356176860  0.6187730575413255  0.3267329015545428   F   F   F
  0.7858537337751983  0.8684378849247452  0.0233263375999968   F   F   F
  0.0361925068685451  0.8684481821285033  0.0231804376454576   F   F   F
  0.0361510304854704  0.6181948801065928  0.0231768362409071   F   F   F
  0.6190443456329504  0.2019567055133606  0.1261896657772752   F   F   F
  0.3686561036697213  0.9519882604778545  0.1264766978181839   F   F   F
  0.0348030095776082  0.3687680117494310  0.3270309245727248   F   F   F
  0.0360413058538072  0.3683142202662140  0.0233493440636394   F   F   F
  0.8690397835674588  0.2019783359483966  0.1265052224318168   F   F   F
  0.9519017133945482  0.5355172331519924  0.2266511119318153   F   F   F
  0.2847274008473306  0.1187245801570000  0.3270638781636350   F   F   F
  0.5351695847561331  0.6189910540675925  0.3275320971363627   F   F   F
  0.2847254997561635  0.3687738694364313  0.3263523205454533   F   F   F
  0.2858245611050663  0.1185735171425719  0.0233661290545442   F   F   F
  0.5359908383357066  0.6184261019238875  0.0233398506727269   F   F   F
  0.2857186599726589  0.3683706043298471  0.0231844613545462   F   F   F
  0.6187164506443565  0.9521500088166732  0.1262278600000002   F   F   F
  0.7019235116748064  0.7854345656686803  0.2264824963136363   F   F   F
  0.8690959375222391  0.7018046654529471  0.1262022390818203   F   F   F
  0.6188423463768089  0.4519398236938201  0.1263739988454518   F   F   F
  0.2858538923134262  0.8673348758161765  0.3282770471363605   F   F   F
  0.2859193513115414  0.8686286319919816  0.0233998370636357   F   F   F
  0.6188727879669429  0.7020201554826073  0.1260981098909113   F   F   F
  0.2021907520003197  0.0343370930742637  0.2273019284818147   F   F   F
  0.8682646834386247  0.9525370158649622  0.4303875034818176   F   F   F
  0.1178565253381336  0.4522904425764693  0.4299317643318190   F   F   F
  0.1166959515695112  0.9538265316156327  0.4305582930681808   F   F   F
  0.8701991805121594  0.4525176290175636  0.4303057619954558   F   F   F
  0.3682349926935018  0.9545075914504508  0.4303472510954549   F   F   F
  0.8695353958390513  0.2009921064420084  0.4305417521772696   F   F   F
  0.1180708030747439  0.2024485640241593  0.4302826887090916   F   F   F
  0.6185114337185382  0.9535310732834290  0.4299988034999984   F   F   F
  0.8691473010959143  0.7029243035166957  0.4299782618590910   F   F   F
  0.3678781508132118  0.2022854857841878  0.4299470757409125   F   F   F
  0.3667052416142269  0.7052748400356919  0.4317728555772717   F   F   F
  0.6215698517013024  0.4502930555129367  0.4314222816772713   F   F   F
  0.1169668565128461  0.7027878236392908  0.4299601344954525   F   F   F
  0.6183422452591358  0.2013116300122988  0.4299938476500031   F   F   F
  0.5348591860895766  0.3693873868580084  0.3275483557454564   F   F   F
  0.5359843659915740  0.3685446996312507  0.0232241412363621   F   F   F
  0.5347955685821830  0.1193682352962639  0.3267483928181818   F   F   F
  0.5357560668454511  0.1186043722279990  0.0231955464954581   F   F   F
  0.8689666145982500  0.4516849442052120  0.1264674227318210   F   F   F
  0.1189593340150168  0.4517284313606638  0.1262840701136341   F   F   F
  0.0349548009890270  0.1187878403615841  0.3272110473272747   F   F   F
  0.0361346736951234  0.1185297013676205  0.0233608019954517   F   F   F
  0.1189018720657700  0.9520458406036809  0.1265093512590880   F   F   F
  0.3658486387385267  0.4501541692300464  0.4294922739000029   F   F   F
  0.4519923181459120  0.5355853041406178  0.2269485019363628   F   F   F
  0.6210668740761562  0.7053155810334957  0.4291185788772722   F   F   F
  0.3686598375615304  0.2020819939415262  0.1262749363272704   F   F   F
  0.1186655044747695  0.2017015468129060  0.1266495769272709   F   F   F
  0.9520183288026089  0.7855927827909426  0.2265577416999989   F   F   F
  0.7855359920294376  0.6188134801880238  0.3268449472863608   F   F   F
  0.2855058916641013  0.6188259100797353  0.3275940377409086   F   F   F
  0.7860135546222224  0.6182591517583376  0.0232050141772717   F   F   F
  0.2860376174956230  0.6184705836731652  0.0232420598499985   F   F   F
  0.3689198999859329  0.7019092288242206  0.1263718968909089   F   F   F
  0.3689696141746026  0.4519572755404440  0.1261509540181791   F   F   F
  0.2016681625995176  0.2851519240163896  0.2268311232000002   F   F   F
  0.7836310987136059  0.3697361434263371  0.3280949366181787   F   F   F
  0.7860496834932604  0.3685039033199331  0.0233911722363658   F   F   F
  0.9516773996879380  0.0352777313611696  0.2268438501363619   F   F   F
  0.4520290271977601  0.7851875657119223  0.2267826438318181   F   F   F
  0.7016692887147897  0.5356236634984910  0.2267273638772735   F   F   F
  0.2022601096168515  0.7851403820681568  0.2269589326045462   F   F   F
  0.4518689905022981  0.0354989518752689  0.2266590337590912   F   F   F
  0.1188657174995456  0.7021405181989095  0.1261710155818179   F   F   F
  0.7020268044744995  0.0355533934734780  0.2265786632363671   F   F   F
  0.7849671047184685  0.1190095723816640  0.3272623842863638   F   F   F
  0.5348176606284696  0.8695085125479309  0.3268476428681808   F   F   F
  0.7859574813671415  0.1186939800528890  0.0232157300454574   F   F   F
  0.5357836325746277  0.8685125770215620  0.0232081995954516   F   F   F
  0.2021483645343096  0.5357816740902166  0.2263940358181813   F   F   F
  0.9509280276027710  0.2856559300997787  0.2272726281090911   F   F   F
  0.8690118351267699  0.9520336072004767  0.1261214445681844   F   F   F
  0.7016470727205544  0.2857334142019070  0.2269421967318195   F   F   F
  0.4522081407636520  0.2856569630200241  0.2264076899727243   F   F   F
  0.4710567840482227  0.5576019751626475  0.5099405951272757   T   T   T
  0.5129170076432742  0.6000729491798467  0.5095085032136375   T   T   T
 
  0.00000000E+00  0.00000000E+00  0.00000000E+00
  0.00000000E+00  0.00000000E+00  0.00000000E+00
  0.00000000E+00  0.00000000E+00  0.00000000E+00
  0.00000000E+00  0.00000000E+00  0.00000000E+00
  0.00000000E+00  0.00000000E+00  0.00000000E+00
  0.00000000E+00  0.00000000E+00  0.00000000E+00
  0.00000000E+00  0.00000000E+00  0.00000000E+00
  0.00000000E+00  0.00000000E+00  0.00000000E+00
  0.00000000E+00  0.00000000E+00  0.00000000E+00
  0.00000000E+00  0.00000000E+00  0.00000000E+00
  0.00000000E+00  0.00000000E+00  0.00000000E+00
  0.00000000E+00  0.00000000E+00  0.00000000E+00
  0.00000000E+00  0.00000000E+00  0.00000000E+00
  0.00000000E+00  0.00000000E+00  0.00000000E+00
  0.00000000E+00  0.00000000E+00  0.00000000E+00
  0.00000000E+00  0.00000000E+00  0.00000000E+00
  0.00000000E+00  0.00000000E+00  0.00000000E+00
  0.00000000E+00  0.00000000E+00  0.00000000E+00
  0.00000000E+00  0.00000000E+00  0.00000000E+00
  0.00000000E+00  0.00000000E+00  0.00000000E+00
  0.00000000E+00  0.00000000E+00  0.00000000E+00
  0.00000000E+00  0.00000000E+00  0.00000000E+00
  0.00000000E+00  0.00000000E+00  0.00000000E+00
  0.00000000E+00  0.00000000E+00  0.00000000E+00
  0.00000000E+00  0.00000000E+00  0.00000000E+00
  0.00000000E+00  0.00000000E+00  0.00000000E+00
  0.00000000E+00  0.00000000E+00  0.00000000E+00
  0.00000000E+00  0.00000000E+00  0.00000000E+00
  0.00000000E+00  0.00000000E+00  0.00000000E+00
  0.00000000E+00  0.00000000E+00  0.00000000E+00
  0.00000000E+00  0.00000000E+00  0.00000000E+00
  0.00000000E+00  0.00000000E+00  0.00000000E+00
  0.00000000E+00  0.00000000E+00  0.00000000E+00
  0.00000000E+00  0.00000000E+00  0.00000000E+00
  0.00000000E+00  0.00000000E+00  0.00000000E+00
  0.00000000E+00  0.00000000E+00  0.00000000E+00
  0.00000000E+00  0.00000000E+00  0.00000000E+00
  0.00000000E+00  0.00000000E+00  0.00000000E+00
  0.00000000E+00  0.00000000E+00  0.00000000E+00
  0.00000000E+00  0.00000000E+00  0.00000000E+00
  0.00000000E+00  0.00000000E+00  0.00000000E+00
  0.00000000E+00  0.00000000E+00  0.00000000E+00
  0.00000000E+00  0.00000000E+00  0.00000000E+00
  0.00000000E+00  0.00000000E+00  0.00000000E+00
  0.00000000E+00  0.00000000E+00  0.00000000E+00
  0.00000000E+00  0.00000000E+00  0.00000000E+00
  0.00000000E+00  0.00000000E+00  0.00000000E+00
  0.00000000E+00  0.00000000E+00  0.00000000E+00
  0.00000000E+00  0.00000000E+00  0.00000000E+00
  0.00000000E+00  0.00000000E+00  0.00000000E+00
  0.00000000E+00  0.00000000E+00  0.00000000E+00
  0.00000000E+00  0.00000000E+00  0.00000000E+00
  0.00000000E+00  0.00000000E+00  0.00000000E+00
  0.00000000E+00  0.00000000E+00  0.00000000E+00
  0.00000000E+00  0.00000000E+00  0.00000000E+00
  0.00000000E+00  0.00000000E+00  0.00000000E+00
  0.00000000E+00  0.00000000E+00  0.00000000E+00
  0.00000000E+00  0.00000000E+00  0.00000000E+00
  0.00000000E+00  0.00000000E+00  0.00000000E+00
  0.00000000E+00  0.00000000E+00  0.00000000E+00
  0.00000000E+00  0.00000000E+00  0.00000000E+00
  0.00000000E+00  0.00000000E+00  0.00000000E+00
  0.00000000E+00  0.00000000E+00  0.00000000E+00
  0.00000000E+00  0.00000000E+00  0.00000000E+00
  0.00000000E+00  0.00000000E+00  0.00000000E+00
  0.00000000E+00  0.00000000E+00  0.00000000E+00
  0.00000000E+00  0.00000000E+00  0.00000000E+00
  0.00000000E+00  0.00000000E+00  0.00000000E+00
  0.00000000E+00  0.00000000E+00  0.00000000E+00
  0.00000000E+00  0.00000000E+00  0.00000000E+00
  0.00000000E+00  0.00000000E+00  0.00000000E+00
  0.00000000E+00  0.00000000E+00  0.00000000E+00
  0.00000000E+00  0.00000000E+00  0.00000000E+00
  0.00000000E+00  0.00000000E+00  0.00000000E+00
  0.00000000E+00  0.00000000E+00  0.00000000E+00
  0.00000000E+00  0.00000000E+00  0.00000000E+00
  0.00000000E+00  0.00000000E+00  0.00000000E+00
  0.00000000E+00  0.00000000E+00  0.00000000E+00
  0.00000000E+00  0.00000000E+00  0.00000000E+00
  0.00000000E+00  0.00000000E+00  0.00000000E+00
  0.00000000E+00  0.00000000E+00  0.00000000E+00
  0.00000000E+00  0.00000000E+00  0.00000000E+00
