Pt   H                                  
   1.00000000000000     
    11.2227001190000006    0.0000000000000000    0.0000000000000000
     5.6113500595000003    9.7191434021000003    0.0000000000000000
     0.0000000000000000    0.0000000000000000   22.0000000000000000
   Pt   H 
    80    17
Direct
  0.7854160313485635  0.8690812490721577  0.3261980888720210
  0.0351798465882373  0.8689592090905471  0.3262722261735262
  0.0352235763832403  0.6188836498385065  0.3261175866941607
  0.7852008952386973  0.8688001705130904  0.0208714045471750
  0.0347293652512555  0.8687446375206815  0.0212302754021174
  0.0349884261083549  0.6189917517566074  0.0211763184555239
  0.6185412885690198  0.2020210894298602  0.1243348307882561
  0.3683348347514167  0.9522942594007513  0.1243038900791038
  0.0356531946110777  0.3687472210398047  0.3263303333259835
  0.0355787127556866  0.3678768485313925  0.0212551821045661
  0.8685922460319011  0.2019712025778772  0.1244037107494867
  0.9521304418731278  0.5352301213769575  0.2245569185593388
  0.2851728836923292  0.1191871452560407  0.3263341601396608
  0.5359211672126973  0.6193823300421123  0.3247256303874396
  0.2843879010222384  0.3679093103495206  0.3251240987057418
  0.2841342208399186  0.1192131444936047  0.0213063236190904
  0.5350716844484501  0.6186107649349041  0.0209808959614881
  0.2850451491236886  0.3686196029488227  0.0209773742402501
  0.6186113109752179  0.9520480635287729  0.1243990311755556
  0.7020060118554908  0.7855452302926951  0.2245256920248695
  0.8684704857304700  0.7022192992112917  0.1244052184729249
  0.6188495303794288  0.4519403584220830  0.1241463427613334
  0.2845225118517606  0.8704764944691287  0.3254266604652727
  0.2850975419965751  0.8687484194196073  0.0210059155122759
  0.6185080239734589  0.7021456882755972  0.1242847356220425
  0.2021701539908903  0.0347691933345604  0.2249975268142979
  0.8691602421867763  0.9526182883085486  0.4323491064350801
  0.1199710853770367  0.4526251317674357  0.4321902085914542
  0.1193630547311327  0.9521214317684674  0.4325928719807602
  0.8690836024160039  0.4524497857280548  0.4320405437376544
  0.3689678853052445  0.9525532965578294  0.4320305394662935
  0.8686328226843530  0.2028204138743609  0.4325303912645418
  0.1189888595800313  0.2025577549892247  0.4323486420157351
  0.6189795068590600  0.9531288953946303  0.4321588859654231
  0.8695408652484000  0.7025186379954307  0.4321530684017356
  0.3690498913507390  0.2034618245578757  0.4321850596606573
  0.3700952567712162  0.7001092384150515  0.4279584627592297
  0.6166880769892382  0.4535256264251341  0.4279747767022601
  0.1208307984637276  0.7016272569062363  0.4322044517606251
  0.6180842673358825  0.2043636062119364  0.4322323082785380
  0.5353276542473270  0.3681087379704891  0.3249617232997788
  0.5352398557871331  0.3687713543026429  0.0210406683752517
  0.5353834449808067  0.1187391639915685  0.3261119336258623
  0.5354105478435873  0.1185135781951627  0.0211487151128378
  0.8687817689892077  0.4518384250337828  0.1243055346900116
  0.1183475490002161  0.4521172957731676  0.1242316600846426
  0.0353276486904607  0.1187466241716770  0.3265650592250491
  0.0356184984344341  0.1191632630776027  0.0214856373040105
  0.1183570341032616  0.9521724735531686  0.1244151000710976
  0.3707740285651357  0.4542093893511379  0.4289221441550599
  0.4518996247023607  0.5355292021420560  0.2239471813248514
  0.6186168564362938  0.7021635001004684  0.4311146334528158
  0.3685619053900823  0.2019438972437552  0.1242235601752379
  0.1184084327783255  0.2020758506009300  0.1253201980953633
  0.9517787138698629  0.7854503600956554  0.2246508214090883
  0.7860337063709477  0.6189214567181113  0.3259236950849644
  0.2845329186876749  0.6188477315231522  0.3249983643554795
  0.7849854145798739  0.6190582044052441  0.0212793289589771
  0.2851773190170218  0.6189225454352028  0.0210924567337702
  0.3683591807647126  0.7024769902204945  0.1241559641050973
  0.3683735963617775  0.4519507376940157  0.1240497433618186
  0.2020127291867152  0.2855392995524053  0.2245237070165589
  0.7869603013281279  0.3680497047811154  0.3254067672154298
  0.7851522093439167  0.3686795164335423  0.0210144084610428
  0.9518453573895093  0.0354879669602954  0.2248422283303743
  0.4521961607975468  0.7854493444139903  0.2243092351623015
  0.7019017528362052  0.5357447270404738  0.2242814875949765
  0.2015688540777454  0.7854347430906613  0.2243804837335080
  0.4516247107644850  0.0357642937563896  0.2245555751207101
  0.1183560955869045  0.7021943848058658  0.1243551707635387
  0.7018923192014866  0.0353995865382942  0.2246067815705655
  0.7853687603358421  0.1187044021913751  0.3262822657039419
  0.5353832715509618  0.8695708078848132  0.3259093487841633
  0.7851525546041206  0.1182698741184865  0.0212838336020204
  0.5354099421716537  0.8686257782666651  0.0212152025979524
  0.2017859248957345  0.5357984747573415  0.2242964908307120
  0.9512419428353397  0.2856739307997918  0.2250095014246746
  0.8684937777006336  0.9519700653692118  0.1245515193374657
  0.7018970508944745  0.2851181235312958  0.2243744905941357
  0.4522149588004583  0.2853813833213672  0.2243089470329983
  0.4594840530362136  0.5426200277301508  0.5220775331519397
  0.4960835360444018  0.5795841755740676  0.5342218296968972
  0.7061396385376401  0.5378307473875090  0.4714853463802164
  0.2024864145617173  0.7858497665240262  0.4720376266202649
  0.4542312065989435  0.7896405479233217  0.4714866910703224
  0.7023283587107405  0.7859443106918407  0.4722624699684626
  0.9530261683193701  0.7854304868781818  0.4728253584250064
  0.2062318681851286  0.5347607481360908  0.4722012144245440
  0.9529482841020727  0.5361293852671960  0.4728126019048138
  0.2024563087998916  0.2860466303820147  0.4730779403610672
  0.4511818058608290  0.2897424212728334  0.4722094762395403
  0.7023583598641017  0.2860117379365721  0.4720309145002648
  0.9515378769445795  0.2861889940149444  0.4732716905399935
  0.2026558759807836  0.0351401084132697  0.4732788808846575
  0.4525864406428952  0.0364827633288639  0.4728099677874087
  0.7019211847937695  0.0366011303766262  0.4728208564422012
  0.9521038879427501  0.0356218152081852  0.4733188177795591
 
  0.00000000E+00  0.00000000E+00  0.00000000E+00
  0.00000000E+00  0.00000000E+00  0.00000000E+00
  0.00000000E+00  0.00000000E+00  0.00000000E+00
  0.00000000E+00  0.00000000E+00  0.00000000E+00
  0.00000000E+00  0.00000000E+00  0.00000000E+00
  0.00000000E+00  0.00000000E+00  0.00000000E+00
  0.00000000E+00  0.00000000E+00  0.00000000E+00
  0.00000000E+00  0.00000000E+00  0.00000000E+00
  0.00000000E+00  0.00000000E+00  0.00000000E+00
  0.00000000E+00  0.00000000E+00  0.00000000E+00
  0.00000000E+00  0.00000000E+00  0.00000000E+00
  0.00000000E+00  0.00000000E+00  0.00000000E+00
  0.00000000E+00  0.00000000E+00  0.00000000E+00
  0.00000000E+00  0.00000000E+00  0.00000000E+00
  0.00000000E+00  0.00000000E+00  0.00000000E+00
  0.00000000E+00  0.00000000E+00  0.00000000E+00
  0.00000000E+00  0.00000000E+00  0.00000000E+00
  0.00000000E+00  0.00000000E+00  0.00000000E+00
  0.00000000E+00  0.00000000E+00  0.00000000E+00
  0.00000000E+00  0.00000000E+00  0.00000000E+00
  0.00000000E+00  0.00000000E+00  0.00000000E+00
  0.00000000E+00  0.00000000E+00  0.00000000E+00
  0.00000000E+00  0.00000000E+00  0.00000000E+00
  0.00000000E+00  0.00000000E+00  0.00000000E+00
  0.00000000E+00  0.00000000E+00  0.00000000E+00
  0.00000000E+00  0.00000000E+00  0.00000000E+00
  0.00000000E+00  0.00000000E+00  0.00000000E+00
  0.00000000E+00  0.00000000E+00  0.00000000E+00
  0.00000000E+00  0.00000000E+00  0.00000000E+00
  0.00000000E+00  0.00000000E+00  0.00000000E+00
  0.00000000E+00  0.00000000E+00  0.00000000E+00
  0.00000000E+00  0.00000000E+00  0.00000000E+00
  0.00000000E+00  0.00000000E+00  0.00000000E+00
  0.00000000E+00  0.00000000E+00  0.00000000E+00
  0.00000000E+00  0.00000000E+00  0.00000000E+00
  0.00000000E+00  0.00000000E+00  0.00000000E+00
  0.00000000E+00  0.00000000E+00  0.00000000E+00
  0.00000000E+00  0.00000000E+00  0.00000000E+00
  0.00000000E+00  0.00000000E+00  0.00000000E+00
  0.00000000E+00  0.00000000E+00  0.00000000E+00
  0.00000000E+00  0.00000000E+00  0.00000000E+00
  0.00000000E+00  0.00000000E+00  0.00000000E+00
  0.00000000E+00  0.00000000E+00  0.00000000E+00
  0.00000000E+00  0.00000000E+00  0.00000000E+00
  0.00000000E+00  0.00000000E+00  0.00000000E+00
  0.00000000E+00  0.00000000E+00  0.00000000E+00
  0.00000000E+00  0.00000000E+00  0.00000000E+00
  0.00000000E+00  0.00000000E+00  0.00000000E+00
  0.00000000E+00  0.00000000E+00  0.00000000E+00
  0.00000000E+00  0.00000000E+00  0.00000000E+00
  0.00000000E+00  0.00000000E+00  0.00000000E+00
  0.00000000E+00  0.00000000E+00  0.00000000E+00
  0.00000000E+00  0.00000000E+00  0.00000000E+00
  0.00000000E+00  0.00000000E+00  0.00000000E+00
  0.00000000E+00  0.00000000E+00  0.00000000E+00
  0.00000000E+00  0.00000000E+00  0.00000000E+00
  0.00000000E+00  0.00000000E+00  0.00000000E+00
  0.00000000E+00  0.00000000E+00  0.00000000E+00
  0.00000000E+00  0.00000000E+00  0.00000000E+00
  0.00000000E+00  0.00000000E+00  0.00000000E+00
  0.00000000E+00  0.00000000E+00  0.00000000E+00
  0.00000000E+00  0.00000000E+00  0.00000000E+00
  0.00000000E+00  0.00000000E+00  0.00000000E+00
  0.00000000E+00  0.00000000E+00  0.00000000E+00
  0.00000000E+00  0.00000000E+00  0.00000000E+00
  0.00000000E+00  0.00000000E+00  0.00000000E+00
  0.00000000E+00  0.00000000E+00  0.00000000E+00
  0.00000000E+00  0.00000000E+00  0.00000000E+00
  0.00000000E+00  0.00000000E+00  0.00000000E+00
  0.00000000E+00  0.00000000E+00  0.00000000E+00
  0.00000000E+00  0.00000000E+00  0.00000000E+00
  0.00000000E+00  0.00000000E+00  0.00000000E+00
  0.00000000E+00  0.00000000E+00  0.00000000E+00
  0.00000000E+00  0.00000000E+00  0.00000000E+00
  0.00000000E+00  0.00000000E+00  0.00000000E+00
  0.00000000E+00  0.00000000E+00  0.00000000E+00
  0.00000000E+00  0.00000000E+00  0.00000000E+00
  0.00000000E+00  0.00000000E+00  0.00000000E+00
  0.00000000E+00  0.00000000E+00  0.00000000E+00
  0.00000000E+00  0.00000000E+00  0.00000000E+00
  0.00000000E+00  0.00000000E+00  0.00000000E+00
  0.00000000E+00  0.00000000E+00  0.00000000E+00
  0.00000000E+00  0.00000000E+00  0.00000000E+00
  0.00000000E+00  0.00000000E+00  0.00000000E+00
  0.00000000E+00  0.00000000E+00  0.00000000E+00
  0.00000000E+00  0.00000000E+00  0.00000000E+00
  0.00000000E+00  0.00000000E+00  0.00000000E+00
  0.00000000E+00  0.00000000E+00  0.00000000E+00
  0.00000000E+00  0.00000000E+00  0.00000000E+00
  0.00000000E+00  0.00000000E+00  0.00000000E+00
  0.00000000E+00  0.00000000E+00  0.00000000E+00
  0.00000000E+00  0.00000000E+00  0.00000000E+00
  0.00000000E+00  0.00000000E+00  0.00000000E+00
  0.00000000E+00  0.00000000E+00  0.00000000E+00
  0.00000000E+00  0.00000000E+00  0.00000000E+00
  0.00000000E+00  0.00000000E+00  0.00000000E+00
  0.00000000E+00  0.00000000E+00  0.00000000E+00
