10.76-high                              
   1.00000000000000     
    10.7600002288999992    0.0000000000000000    0.0000000000000000
     5.3800001143999996    9.3184335428999994    0.0000000000000000
     0.0000000000000000    0.0000000000000000   22.0000000000000000
   Pt   Fe   Co   Cu   Ni
    42    10     9    10     9
Direct
  0.7767238963359346  0.8687721089290700  0.3206780341330431
  0.0380444688306795  0.8691092704021356  0.3219313019161068
  0.0339237283618194  0.6174130281884385  0.3220579573190770
  0.0278511220345034  0.3694934793358623  0.3225517390408353
  0.2890183503629120  0.1077845179496560  0.3216863431887295
  0.2859577584548568  0.3695893815776456  0.3214093720618064
  0.8646841455859388  0.7021432081576034  0.1247514084539000
  0.8682709859716936  0.9514166767309560  0.4268318569567099
  0.1171569595056398  0.4532347655044554  0.4293863145058937
  0.1197857351419260  0.9521907520551190  0.4260982996065256
  0.8675719835081204  0.4514103002266375  0.4284504319515237
  0.3699277714308876  0.9493563524895704  0.4257593443016574
  0.8675207822426710  0.2030991320898827  0.4244521295742829
  0.1180394658617088  0.2019888594768320  0.4289802421339652
  0.6187018510096285  0.9501111248399202  0.4270734520357318
  0.8669070175236142  0.7026934570996921  0.4300929840192265
  0.3695902535506183  0.1999077656214871  0.4280347557995534
  0.3700299617893905  0.7041686390004782  0.4262761264247778
  0.6201056193269139  0.4540676743569481  0.4257785234215715
  0.1185304476258877  0.7020243536868143  0.4305336397051976
  0.6181733461279780  0.2030175011396325  0.4256221211242494
  0.5394941993963726  0.3742145834236730  0.3202824963654752
  0.5335352380664652  0.1185098643463297  0.3197635940925826
  0.5405002563703776  0.1171675576139781  0.0391527106701470
  0.1210573879743579  0.4474075148417795  0.1249210879645733
  0.0354850631231471  0.1162706788968087  0.3184402909732042
  0.0315456032398998  0.1294117817168842  0.0310577622526989
  0.1147000384483147  0.9588017268188428  0.1273193908050418
  0.3677006230441054  0.4533023693969021  0.4282688731741775
  0.4544682001371405  0.5313222659061294  0.2205075672225237
  0.6173335764277738  0.7018953710338357  0.4285550513180431
  0.9484071672561225  0.7849813550496346  0.2229046467130423
  0.7737628111254840  0.6214080556083404  0.3210573800023437
  0.2910346334042884  0.6217387962207880  0.3220510911132730
  0.3795541898921653  0.7018343736272596  0.1236714860647577
  0.1997754854096646  0.2819940149130903  0.2231947386468000
  0.6977957306352764  0.5450269556235386  0.2200978776219863
  0.2047966844180766  0.7921720669909171  0.2238020734808404
  0.4526530681222352  0.0203008519699608  0.2201085354077296
  0.6942811086317404  0.0443891468491559  0.2155080909375620
  0.7837344109198455  0.1231424650329892  0.3177105856071092
  0.9463404562022879  0.2821866557072801  0.2196855891290231
  0.7836604435239243  0.8685744289666053  0.0350947241787422
  0.0454599232666150  0.8597913611156012  0.0348449133567759
  0.0400946479090266  0.6215872670613934  0.0331606203701979
  0.6187981760195047  0.2186314129559127  0.1273544206231254
  0.3695826220175628  0.9499312868603167  0.1257832927482238
  0.0178260052166454  0.3768241921130844  0.0371737941429255
  0.8633729270448880  0.2095606816605787  0.1263490793074324
  0.9472411410298268  0.5358647369298282  0.2261622917426249
  0.5339458248678871  0.6208811359220082  0.3250829093407649
  0.2883810295707391  0.1107150255900605  0.0387662171864050
  0.5578102339018045  0.6091973278411156  0.0398841926251854
  0.2897063677673080  0.3792393303075955  0.0364903863486776
  0.6188796135279770  0.9362344752381448  0.1272664867069964
  0.6994349501784041  0.7834820487304768  0.2224731293032416
  0.6231456641850616  0.4499983107308846  0.1263532966009588
  0.2890798469434385  0.8661674458553443  0.3211055375020267
  0.2884708717914323  0.8755854277559333  0.0352660383569344
  0.6208987868894134  0.7069782197309339  0.1268745137792107
  0.2082413718354045  0.0290663429078648  0.2259603828244404
  0.5370963975972955  0.3765562235625641  0.0341606108264005
  0.3714084868522871  0.2023399072091006  0.1303399670885314
  0.1227288908306831  0.6984654815261536  0.1294203840610875
  0.5313826689864791  0.8621925720684314  0.3218245254583003
  0.7878722821965987  0.1190821785792974  0.0331202683229066
  0.5379422553997278  0.8619502281610102  0.0339696843897679
  0.2030493571062987  0.5349723908702850  0.2228371346544323
  0.8682526849156585  0.9562678974810421  0.1254538118989392
  0.7020680855966923  0.2874908390233215  0.2219742802522188
  0.4478143435201333  0.2900559621180455  0.2216441791572064
  0.8676999833458617  0.4481674714946664  0.1270163263823592
  0.1236767417354157  0.2010701842377641  0.1266109068436635
  0.7830094232238592  0.6109398958245887  0.0367189702218554
  0.2790998749334184  0.6198533716895215  0.0383297673914975
  0.3751767496170462  0.4460453211506917  0.1256387735803479
  0.7797022867067945  0.3746763112378501  0.3208713279994715
  0.7831074082596520  0.3714113216275082  0.0378900793112838
  0.9499002735556753  0.0379490004611161  0.2217393852519800
  0.4536990653050941  0.7836528799564304  0.2272261356255651
 
  0.00000000E+00  0.00000000E+00  0.00000000E+00
  0.00000000E+00  0.00000000E+00  0.00000000E+00
  0.00000000E+00  0.00000000E+00  0.00000000E+00
  0.00000000E+00  0.00000000E+00  0.00000000E+00
  0.00000000E+00  0.00000000E+00  0.00000000E+00
  0.00000000E+00  0.00000000E+00  0.00000000E+00
  0.00000000E+00  0.00000000E+00  0.00000000E+00
  0.00000000E+00  0.00000000E+00  0.00000000E+00
  0.00000000E+00  0.00000000E+00  0.00000000E+00
  0.00000000E+00  0.00000000E+00  0.00000000E+00
  0.00000000E+00  0.00000000E+00  0.00000000E+00
  0.00000000E+00  0.00000000E+00  0.00000000E+00
  0.00000000E+00  0.00000000E+00  0.00000000E+00
  0.00000000E+00  0.00000000E+00  0.00000000E+00
  0.00000000E+00  0.00000000E+00  0.00000000E+00
  0.00000000E+00  0.00000000E+00  0.00000000E+00
  0.00000000E+00  0.00000000E+00  0.00000000E+00
  0.00000000E+00  0.00000000E+00  0.00000000E+00
  0.00000000E+00  0.00000000E+00  0.00000000E+00
  0.00000000E+00  0.00000000E+00  0.00000000E+00
  0.00000000E+00  0.00000000E+00  0.00000000E+00
  0.00000000E+00  0.00000000E+00  0.00000000E+00
  0.00000000E+00  0.00000000E+00  0.00000000E+00
  0.00000000E+00  0.00000000E+00  0.00000000E+00
  0.00000000E+00  0.00000000E+00  0.00000000E+00
  0.00000000E+00  0.00000000E+00  0.00000000E+00
  0.00000000E+00  0.00000000E+00  0.00000000E+00
  0.00000000E+00  0.00000000E+00  0.00000000E+00
  0.00000000E+00  0.00000000E+00  0.00000000E+00
  0.00000000E+00  0.00000000E+00  0.00000000E+00
  0.00000000E+00  0.00000000E+00  0.00000000E+00
  0.00000000E+00  0.00000000E+00  0.00000000E+00
  0.00000000E+00  0.00000000E+00  0.00000000E+00
  0.00000000E+00  0.00000000E+00  0.00000000E+00
  0.00000000E+00  0.00000000E+00  0.00000000E+00
  0.00000000E+00  0.00000000E+00  0.00000000E+00
  0.00000000E+00  0.00000000E+00  0.00000000E+00
  0.00000000E+00  0.00000000E+00  0.00000000E+00
  0.00000000E+00  0.00000000E+00  0.00000000E+00
  0.00000000E+00  0.00000000E+00  0.00000000E+00
  0.00000000E+00  0.00000000E+00  0.00000000E+00
  0.00000000E+00  0.00000000E+00  0.00000000E+00
  0.00000000E+00  0.00000000E+00  0.00000000E+00
  0.00000000E+00  0.00000000E+00  0.00000000E+00
  0.00000000E+00  0.00000000E+00  0.00000000E+00
  0.00000000E+00  0.00000000E+00  0.00000000E+00
  0.00000000E+00  0.00000000E+00  0.00000000E+00
  0.00000000E+00  0.00000000E+00  0.00000000E+00
  0.00000000E+00  0.00000000E+00  0.00000000E+00
  0.00000000E+00  0.00000000E+00  0.00000000E+00
  0.00000000E+00  0.00000000E+00  0.00000000E+00
  0.00000000E+00  0.00000000E+00  0.00000000E+00
  0.00000000E+00  0.00000000E+00  0.00000000E+00
  0.00000000E+00  0.00000000E+00  0.00000000E+00
  0.00000000E+00  0.00000000E+00  0.00000000E+00
  0.00000000E+00  0.00000000E+00  0.00000000E+00
  0.00000000E+00  0.00000000E+00  0.00000000E+00
  0.00000000E+00  0.00000000E+00  0.00000000E+00
  0.00000000E+00  0.00000000E+00  0.00000000E+00
  0.00000000E+00  0.00000000E+00  0.00000000E+00
  0.00000000E+00  0.00000000E+00  0.00000000E+00
  0.00000000E+00  0.00000000E+00  0.00000000E+00
  0.00000000E+00  0.00000000E+00  0.00000000E+00
  0.00000000E+00  0.00000000E+00  0.00000000E+00
  0.00000000E+00  0.00000000E+00  0.00000000E+00
  0.00000000E+00  0.00000000E+00  0.00000000E+00
  0.00000000E+00  0.00000000E+00  0.00000000E+00
  0.00000000E+00  0.00000000E+00  0.00000000E+00
  0.00000000E+00  0.00000000E+00  0.00000000E+00
  0.00000000E+00  0.00000000E+00  0.00000000E+00
  0.00000000E+00  0.00000000E+00  0.00000000E+00
  0.00000000E+00  0.00000000E+00  0.00000000E+00
  0.00000000E+00  0.00000000E+00  0.00000000E+00
  0.00000000E+00  0.00000000E+00  0.00000000E+00
  0.00000000E+00  0.00000000E+00  0.00000000E+00
  0.00000000E+00  0.00000000E+00  0.00000000E+00
  0.00000000E+00  0.00000000E+00  0.00000000E+00
  0.00000000E+00  0.00000000E+00  0.00000000E+00
  0.00000000E+00  0.00000000E+00  0.00000000E+00
  0.00000000E+00  0.00000000E+00  0.00000000E+00
