10.46-high                              
   1.00000000000000     
    10.4600000381000005    0.0000000000000000    0.0000000000000000
     5.2300000191000002    9.0586257565999997    0.0000000000000000
     0.0000000000000000    0.0000000000000000   22.0000000000000000
   Pt   Fe   Co   Cu   Ni   H 
    42    10     9    10     9     1
Selective dynamics
Direct
  0.7787073220285876  0.8678837052266957  0.3234641363045441   F   F   F
  0.0394880993852098  0.8677995884610326  0.3265642808363651   F   F   F
  0.0337899936225199  0.6189636381450967  0.3272205075909085   F   F   F
  0.0296157028303270  0.3677180904480011  0.3254327764500005   F   F   F
  0.2883803666069369  0.1087521891256245  0.3233358330090894   F   F   F
  0.2859112987506478  0.3692023819356081  0.3234521990272725   F   F   F
  0.8646688719993207  0.7049857790015324  0.1222998450000006   F   F   F
  0.8676262384067854  0.9516161613829013  0.4359709727499990   F   F   F
  0.1182704430262618  0.4536158225000193  0.4345315715954570   F   F   F
  0.1195753180180787  0.9527344268982461  0.4356534286045459   F   F   F
  0.8687033251554652  0.4513850006796929  0.4323753904999990   F   F   F
  0.3689280227806364  0.9505147138821357  0.4283262761636379   F   F   F
  0.8675841009348417  0.2038805915626227  0.4269969591181848   F   F   F
  0.1186958774319891  0.2015475656194070  0.4389253839636353   F   F   F
  0.6192337346492636  0.9511716995618542  0.4309901924227262   F   F   F
  0.8673261329927655  0.7020901006387419  0.4364471152090914   F   F   F
  0.3692758168147563  0.2009374052983475  0.4327602019272732   F   F   F
  0.3699184088413929  0.7031502223126083  0.4308520210681834   F   F   F
  0.6196541416934593  0.4533013329100370  0.4288270879409097   F   F   F
  0.1201638699156291  0.6999729500448950  0.4534554706136333   F   F   F
  0.6187701985227250  0.2025789353934826  0.4328349358272732   F   F   F
  0.5397052023185367  0.3732452822478720  0.3218981692227274   F   F   F
  0.5345268727498365  0.1178809027762284  0.3215748588499991   F   F   F
  0.5387088449945026  0.1180223620035363  0.0323852710000025   F   F   F
  0.1229061669992149  0.4482501310026592  0.1229069019999969   F   F   F
  0.0358619523052397  0.1161196901344113  0.3207228154227266   F   F   F
  0.0334052510011063  0.1263050589948875  0.0270631940000001   F   F   F
  0.1140217539961768  0.9592387070046513  0.1256205170000015   F   F   F
  0.3675407135920636  0.4538250326110145  0.4327293447227305   F   F   F
  0.4535746069942803  0.5294572910030624  0.2203990980000015   F   F   F
  0.6177615538455115  0.7023331470410525  0.4355696902454511   F   F   F
  0.9489900690032442  0.7827401870017567  0.2236112900000009   F   F   F
  0.7736168896938054  0.6201621652166125  0.3229300621545477   F   F   F
  0.2902531961570034  0.6223523918837799  0.3246989947636365   F   F   F
  0.3775393079994345  0.6996762390014979  0.1228007950000034   F   F   F
  0.1990148359986961  0.2847226810005736  0.2228073859999995   F   F   F
  0.6985210319978847  0.5449136329982025  0.2191953660000010   F   F   F
  0.2021375509972643  0.7918219440044751  0.2238942059999971   F   F   F
  0.4509136879990976  0.0227837570008518  0.2188853569999978   F   F   F
  0.6963785559985993  0.0426407060053862  0.2154283309999983   F   F   F
  0.7850616395446224  0.1209109489374782  0.3198588333499970   F   F   F
  0.9473702909993094  0.2812973029980199  0.2183517329999987   F   F   F
  0.7886738530021518  0.8644281519958810  0.0287872629999981   F   F   F
  0.0450368569986850  0.8626276869984011  0.0295607660000030   F   F   F
  0.0419381929998366  0.6177767709989226  0.0278294189999997   F   F   F
  0.6176174129956635  0.2140363110030634  0.1243319940000021   F   F   F
  0.3690119070012230  0.9519866300047681  0.1225268520000000   F   F   F
  0.0249286510000459  0.3766440390049368  0.0322170279999980   F   F   F
  0.8625312130032441  0.2106725069980442  0.1232886749999977   F   F   F
  0.9476742869988115  0.5365924040032795  0.2262523169999966   F   F   F
  0.5334526884920052  0.6221592526320805  0.3270727941818166   F   F   F
  0.2883772690024173  0.1137155559991498  0.0325338950000003   F   F   F
  0.5504824240023964  0.6126948950017308  0.0356175679999993   F   F   F
  0.2897445219979105  0.3746422300013208  0.0322482019999981   F   F   F
  0.6142260530037902  0.9430302059974167  0.1245923580000010   F   F   F
  0.6989435809945590  0.7856200150022659  0.2205963350000033   F   F   F
  0.6229743600006756  0.4501393459961704  0.1238703839999999   F   F   F
  0.2913979893575771  0.8648498380112457  0.3207934456318213   F   F   F
  0.2909193859995014  0.8681523620037197  0.0312663890000024   F   F   F
  0.6201044439971781  0.7062132159990142  0.1241399159999972   F   F   F
  0.2056123299998021  0.0307007229984464  0.2259227360000011   F   F   F
  0.5362577209991812  0.3750078080027706  0.0295104469999998   F   F   F
  0.3717786720036287  0.2013498210002851  0.1265723710000017   F   F   F
  0.1215433559978081  0.7002740610051319  0.1260872539999980   F   F   F
  0.5318081145996842  0.8628864611174549  0.3222225506090908   F   F   F
  0.7868755759996588  0.1205942250019660  0.0274876929999976   F   F   F
  0.5384324900042401  0.8622688990003837  0.0293575660000016   F   F   F
  0.2017867139986862  0.5350951929952927  0.2228108750000004   F   F   F
  0.8649812590023060  0.9577480760013586  0.1220255770000023   F   F   F
  0.7014941730027431  0.2859032169987827  0.2208637760000016   F   F   F
  0.4474190369966706  0.2876733090006880  0.2205316149999987   F   F   F
  0.8678252290042252  0.4486707169946555  0.1240203380000011   F   F   F
  0.1229174259965049  0.2020265610008920  0.1240552120000018   F   F   F
  0.7843223469946352  0.6138231070037037  0.0322942649999973   F   F   F
  0.2837197769995612  0.6160386309958952  0.0336797160000017   F   F   F
  0.3761449209956851  0.4443194180052643  0.1229033580000021   F   F   F
  0.7815507653476104  0.3724057873946407  0.3213265016590938   F   F   F
  0.7825934670013694  0.3730426879969002  0.0335873089999978   F   F   F
  0.9480028170031005  0.0375464239983856  0.2205562589999985   F   F   F
  0.4523283130002156  0.7840277900017441  0.2263070449999987   F   F   F
  0.0474961717116003  0.8669382591259165  0.4914839433636395   T   T   T
 
  0.00000000E+00  0.00000000E+00  0.00000000E+00
  0.00000000E+00  0.00000000E+00  0.00000000E+00
  0.00000000E+00  0.00000000E+00  0.00000000E+00
  0.00000000E+00  0.00000000E+00  0.00000000E+00
  0.00000000E+00  0.00000000E+00  0.00000000E+00
  0.00000000E+00  0.00000000E+00  0.00000000E+00
  0.00000000E+00  0.00000000E+00  0.00000000E+00
  0.00000000E+00  0.00000000E+00  0.00000000E+00
  0.00000000E+00  0.00000000E+00  0.00000000E+00
  0.00000000E+00  0.00000000E+00  0.00000000E+00
  0.00000000E+00  0.00000000E+00  0.00000000E+00
  0.00000000E+00  0.00000000E+00  0.00000000E+00
  0.00000000E+00  0.00000000E+00  0.00000000E+00
  0.00000000E+00  0.00000000E+00  0.00000000E+00
  0.00000000E+00  0.00000000E+00  0.00000000E+00
  0.00000000E+00  0.00000000E+00  0.00000000E+00
  0.00000000E+00  0.00000000E+00  0.00000000E+00
  0.00000000E+00  0.00000000E+00  0.00000000E+00
  0.00000000E+00  0.00000000E+00  0.00000000E+00
  0.00000000E+00  0.00000000E+00  0.00000000E+00
  0.00000000E+00  0.00000000E+00  0.00000000E+00
  0.00000000E+00  0.00000000E+00  0.00000000E+00
  0.00000000E+00  0.00000000E+00  0.00000000E+00
  0.00000000E+00  0.00000000E+00  0.00000000E+00
  0.00000000E+00  0.00000000E+00  0.00000000E+00
  0.00000000E+00  0.00000000E+00  0.00000000E+00
  0.00000000E+00  0.00000000E+00  0.00000000E+00
  0.00000000E+00  0.00000000E+00  0.00000000E+00
  0.00000000E+00  0.00000000E+00  0.00000000E+00
  0.00000000E+00  0.00000000E+00  0.00000000E+00
  0.00000000E+00  0.00000000E+00  0.00000000E+00
  0.00000000E+00  0.00000000E+00  0.00000000E+00
  0.00000000E+00  0.00000000E+00  0.00000000E+00
  0.00000000E+00  0.00000000E+00  0.00000000E+00
  0.00000000E+00  0.00000000E+00  0.00000000E+00
  0.00000000E+00  0.00000000E+00  0.00000000E+00
  0.00000000E+00  0.00000000E+00  0.00000000E+00
  0.00000000E+00  0.00000000E+00  0.00000000E+00
  0.00000000E+00  0.00000000E+00  0.00000000E+00
  0.00000000E+00  0.00000000E+00  0.00000000E+00
  0.00000000E+00  0.00000000E+00  0.00000000E+00
  0.00000000E+00  0.00000000E+00  0.00000000E+00
  0.00000000E+00  0.00000000E+00  0.00000000E+00
  0.00000000E+00  0.00000000E+00  0.00000000E+00
  0.00000000E+00  0.00000000E+00  0.00000000E+00
  0.00000000E+00  0.00000000E+00  0.00000000E+00
  0.00000000E+00  0.00000000E+00  0.00000000E+00
  0.00000000E+00  0.00000000E+00  0.00000000E+00
  0.00000000E+00  0.00000000E+00  0.00000000E+00
  0.00000000E+00  0.00000000E+00  0.00000000E+00
  0.00000000E+00  0.00000000E+00  0.00000000E+00
  0.00000000E+00  0.00000000E+00  0.00000000E+00
  0.00000000E+00  0.00000000E+00  0.00000000E+00
  0.00000000E+00  0.00000000E+00  0.00000000E+00
  0.00000000E+00  0.00000000E+00  0.00000000E+00
  0.00000000E+00  0.00000000E+00  0.00000000E+00
  0.00000000E+00  0.00000000E+00  0.00000000E+00
  0.00000000E+00  0.00000000E+00  0.00000000E+00
  0.00000000E+00  0.00000000E+00  0.00000000E+00
  0.00000000E+00  0.00000000E+00  0.00000000E+00
  0.00000000E+00  0.00000000E+00  0.00000000E+00
  0.00000000E+00  0.00000000E+00  0.00000000E+00
  0.00000000E+00  0.00000000E+00  0.00000000E+00
  0.00000000E+00  0.00000000E+00  0.00000000E+00
  0.00000000E+00  0.00000000E+00  0.00000000E+00
  0.00000000E+00  0.00000000E+00  0.00000000E+00
  0.00000000E+00  0.00000000E+00  0.00000000E+00
  0.00000000E+00  0.00000000E+00  0.00000000E+00
  0.00000000E+00  0.00000000E+00  0.00000000E+00
  0.00000000E+00  0.00000000E+00  0.00000000E+00
  0.00000000E+00  0.00000000E+00  0.00000000E+00
  0.00000000E+00  0.00000000E+00  0.00000000E+00
  0.00000000E+00  0.00000000E+00  0.00000000E+00
  0.00000000E+00  0.00000000E+00  0.00000000E+00
  0.00000000E+00  0.00000000E+00  0.00000000E+00
  0.00000000E+00  0.00000000E+00  0.00000000E+00
  0.00000000E+00  0.00000000E+00  0.00000000E+00
  0.00000000E+00  0.00000000E+00  0.00000000E+00
  0.00000000E+00  0.00000000E+00  0.00000000E+00
  0.00000000E+00  0.00000000E+00  0.00000000E+00
  0.00000000E+00  0.00000000E+00  0.00000000E+00
