10.66                                   
   1.00000000000000     
    10.6599998474000000    0.0000000000000000    0.0000000000000000
     5.3299999237000000    9.2318306721999992    0.0000000000000000
     0.0000000000000000    0.0000000000000000   22.0000000000000000
   Pt   Fe   Co   Cu   Ni   H 
    32    13    10    13    12     1
Selective dynamics
Direct
  0.7860612124109001  0.8795770789598247  0.3160650652528095   T   T   T
  0.0424838623106941  0.8824779725205183  0.3144364601266633   T   T   T
  0.2787085968188920  0.3806040906256236  0.3205235223295664   T   T   T
  0.8735217718470637  0.9621940722101486  0.4217645740122098   T   T   T
  0.1167451018345506  0.4646956207218071  0.4285810111306486   T   T   T
  0.1243012095205012  0.9614983102044590  0.4199087809078181   T   T   T
  0.8735856240226846  0.4592467376914127  0.4246474726131383   T   T   T
  0.3737673277876838  0.9601236955189356  0.4189154625577971   T   T   T
  0.8732518970700730  0.2113718136824547  0.4191769278760191   T   T   T
  0.1237190104329872  0.2105773995751161  0.4205381481195932   T   T   T
  0.6247894445413307  0.9598593088272386  0.4221482494514449   T   T   T
  0.8730750750151316  0.7115661108865594  0.4244134665102713   T   T   T
  0.3761130516877533  0.2060007917658350  0.4259053226592733   T   T   T
  0.3745191549938267  0.7131174237665315  0.4221904853677656   T   T   T
  0.6255660409494492  0.4615825379266758  0.4211578607594208   T   T   T
  0.1220896947273278  0.7131106011675262  0.4237872702697467   T   T   T
  0.6267851242579632  0.2094617321942520  0.4198767961988575   T   T   T
  0.5472412335706266  0.3757065718384557  0.3166477209226236   T   T   T
  0.5329083587755846  0.1249269193834158  0.3149666914468177   T   T   T
  0.5486022592113002  0.1220783678684398  0.0417194611409073   F   F   F
  0.1203770114094098  0.4596758926676330  0.1283201030954544   F   F   F
  0.0432366022305922  0.1363679666512176  0.3133691713793800   T   T   T
  0.0418426388172080  0.1305148925801163  0.0343023685500015   F   F   F
  0.1308766909586225  0.9576410281464973  0.1324593496136330   F   F   F
  0.3752973282045514  0.4630540290611271  0.4274757222153128   T   T   T
  0.4548311646305437  0.5458030370019814  0.2188124209634624   T   T   T
  0.6220871869728233  0.7112925544995709  0.4221782154144531   T   T   T
  0.9570770362002049  0.7878559679240706  0.2205929530473491   T   T   T
  0.7942463741652596  0.6227996014757905  0.3184307335777888   T   T   T
  0.2914093995860441  0.6308027032485752  0.3178275945049132   T   T   T
  0.2029431870844477  0.2805027007774398  0.2257497848721898   T   T   T
  0.7062127134091482  0.5492340222867331  0.2209228302888078   T   T   T
  0.0402715340329981  0.6303911179364452  0.3241287918469276   T   T   T
  0.7960105560665554  0.8618201000109948  0.0435832611454572   F   F   F
  0.0565437832242921  0.8651109997121225  0.0392200758363614   F   F   F
  0.0435481061810350  0.6317236463144766  0.0389093084545422   F   F   F
  0.6276815134142240  0.2235163201393817  0.1293691217272723   F   F   F
  0.3825164796165623  0.9540841432375444  0.1307328652727264   F   F   F
  0.0354626654933607  0.3836864295749806  0.3237748026396731   T   T   T
  0.0278953743126209  0.3811135671600852  0.0392268803136346   F   F   F
  0.8723854835080758  0.2152433571581582  0.1290949134499968   F   F   F
  0.9550695304499596  0.5441253367526784  0.2238366035782614   T   T   T
  0.2961286633557758  0.1157242848114565  0.3206851193776730   T   T   T
  0.5403431296933496  0.6289147990389878  0.3213763420446786   T   T   T
  0.2959387413066850  0.1156684851700760  0.0410976887409120   F   F   F
  0.5491575652165039  0.6253534475437093  0.0451299578272710   F   F   F
  0.2944436057289366  0.3818825695120651  0.0395469972636349   F   F   F
  0.6257779840731033  0.9479981115397109  0.1328387403227254   F   F   F
  0.7071808891932039  0.7930701887191802  0.2201917816067956   T   T   T
  0.8652306351059451  0.7044347069518153  0.1296516185590875   F   F   F
  0.6267408805099777  0.4597839886277342  0.1279108792227248   F   F   F
  0.2980668051418095  0.8746644563186714  0.3175745592458544   T   T   T
  0.3065683121091567  0.8685951938597540  0.0415361194227302   F   F   F
  0.6265607890783187  0.7150544964909855  0.1290314723727306   F   F   F
  0.2261252974596045  0.0278996939044213  0.2274638414328490   T   T   T
  0.5442540274210828  0.3813987627289208  0.0359396309863627   F   F   F
  0.3788308164937106  0.2041435759404919  0.1334105030954547   F   F   F
  0.1370202990309650  0.7046968196449441  0.1327566403363605   F   F   F
  0.7042183853971279  0.0511233172692192  0.2202929666015628   T   T   T
  0.7926285054523382  0.1299107088756373  0.3161506747391785   T   T   T
  0.5385749220956015  0.8727510174500284  0.3166852889860395   T   T   T
  0.7969090446290110  0.1230080278139880  0.0358981495909063   F   F   F
  0.5463967724760010  0.8699164031445790  0.0370350138545490   F   F   F
  0.2086059962906038  0.5407380538203455  0.2242921355493945   T   T   T
  0.9517682651691517  0.2975967051845505  0.2216195078743866   T   T   T
  0.8720363512232439  0.9641267701868443  0.1296642823045460   F   F   F
  0.7151679099351863  0.2902369920106088  0.2234817145780691   T   T   T
  0.4566173089521506  0.2922035987543833  0.2212236163474220   T   T   T
  0.8754952507754368  0.4570332552356646  0.1289402077090926   F   F   F
  0.1280802376379100  0.2061871464271974  0.1293457843363655   F   F   F
  0.7920109362154477  0.6217651118845851  0.0414976089772736   F   F   F
  0.2975223793196520  0.6287043760646469  0.0435603156136395   F   F   F
  0.3861497401569878  0.7125257726301442  0.1296682481727274   F   F   F
  0.3823461753116746  0.4514638794503369  0.1268844718136393   F   F   F
  0.7923664571108490  0.3796291856702233  0.3199446834298656   T   T   T
  0.7914206266351727  0.3768939204309305  0.0409385091409078   F   F   F
  0.9551583808735448  0.0533819106108180  0.2214772453485854   T   T   T
  0.4588944909942300  0.7963447227846002  0.2248204885522504   T   T   T
  0.2155060639334286  0.7976503184714938  0.2245179713204591   T   T   T
  0.4625566037336944  0.0295244413865823  0.2224880993021273   T   T   T
  0.3013119092796311  0.3733606776340643  0.4713744511116237   T   T   T
 
  0.00000000E+00  0.00000000E+00  0.00000000E+00
  0.00000000E+00  0.00000000E+00  0.00000000E+00
  0.00000000E+00  0.00000000E+00  0.00000000E+00
  0.00000000E+00  0.00000000E+00  0.00000000E+00
  0.00000000E+00  0.00000000E+00  0.00000000E+00
  0.00000000E+00  0.00000000E+00  0.00000000E+00
  0.00000000E+00  0.00000000E+00  0.00000000E+00
  0.00000000E+00  0.00000000E+00  0.00000000E+00
  0.00000000E+00  0.00000000E+00  0.00000000E+00
  0.00000000E+00  0.00000000E+00  0.00000000E+00
  0.00000000E+00  0.00000000E+00  0.00000000E+00
  0.00000000E+00  0.00000000E+00  0.00000000E+00
  0.00000000E+00  0.00000000E+00  0.00000000E+00
  0.00000000E+00  0.00000000E+00  0.00000000E+00
  0.00000000E+00  0.00000000E+00  0.00000000E+00
  0.00000000E+00  0.00000000E+00  0.00000000E+00
  0.00000000E+00  0.00000000E+00  0.00000000E+00
  0.00000000E+00  0.00000000E+00  0.00000000E+00
  0.00000000E+00  0.00000000E+00  0.00000000E+00
  0.00000000E+00  0.00000000E+00  0.00000000E+00
  0.00000000E+00  0.00000000E+00  0.00000000E+00
  0.00000000E+00  0.00000000E+00  0.00000000E+00
  0.00000000E+00  0.00000000E+00  0.00000000E+00
  0.00000000E+00  0.00000000E+00  0.00000000E+00
  0.00000000E+00  0.00000000E+00  0.00000000E+00
  0.00000000E+00  0.00000000E+00  0.00000000E+00
  0.00000000E+00  0.00000000E+00  0.00000000E+00
  0.00000000E+00  0.00000000E+00  0.00000000E+00
  0.00000000E+00  0.00000000E+00  0.00000000E+00
  0.00000000E+00  0.00000000E+00  0.00000000E+00
  0.00000000E+00  0.00000000E+00  0.00000000E+00
  0.00000000E+00  0.00000000E+00  0.00000000E+00
  0.00000000E+00  0.00000000E+00  0.00000000E+00
  0.00000000E+00  0.00000000E+00  0.00000000E+00
  0.00000000E+00  0.00000000E+00  0.00000000E+00
  0.00000000E+00  0.00000000E+00  0.00000000E+00
  0.00000000E+00  0.00000000E+00  0.00000000E+00
  0.00000000E+00  0.00000000E+00  0.00000000E+00
  0.00000000E+00  0.00000000E+00  0.00000000E+00
  0.00000000E+00  0.00000000E+00  0.00000000E+00
  0.00000000E+00  0.00000000E+00  0.00000000E+00
  0.00000000E+00  0.00000000E+00  0.00000000E+00
  0.00000000E+00  0.00000000E+00  0.00000000E+00
  0.00000000E+00  0.00000000E+00  0.00000000E+00
  0.00000000E+00  0.00000000E+00  0.00000000E+00
  0.00000000E+00  0.00000000E+00  0.00000000E+00
  0.00000000E+00  0.00000000E+00  0.00000000E+00
  0.00000000E+00  0.00000000E+00  0.00000000E+00
  0.00000000E+00  0.00000000E+00  0.00000000E+00
  0.00000000E+00  0.00000000E+00  0.00000000E+00
  0.00000000E+00  0.00000000E+00  0.00000000E+00
  0.00000000E+00  0.00000000E+00  0.00000000E+00
  0.00000000E+00  0.00000000E+00  0.00000000E+00
  0.00000000E+00  0.00000000E+00  0.00000000E+00
  0.00000000E+00  0.00000000E+00  0.00000000E+00
  0.00000000E+00  0.00000000E+00  0.00000000E+00
  0.00000000E+00  0.00000000E+00  0.00000000E+00
  0.00000000E+00  0.00000000E+00  0.00000000E+00
  0.00000000E+00  0.00000000E+00  0.00000000E+00
  0.00000000E+00  0.00000000E+00  0.00000000E+00
  0.00000000E+00  0.00000000E+00  0.00000000E+00
  0.00000000E+00  0.00000000E+00  0.00000000E+00
  0.00000000E+00  0.00000000E+00  0.00000000E+00
  0.00000000E+00  0.00000000E+00  0.00000000E+00
  0.00000000E+00  0.00000000E+00  0.00000000E+00
  0.00000000E+00  0.00000000E+00  0.00000000E+00
  0.00000000E+00  0.00000000E+00  0.00000000E+00
  0.00000000E+00  0.00000000E+00  0.00000000E+00
  0.00000000E+00  0.00000000E+00  0.00000000E+00
  0.00000000E+00  0.00000000E+00  0.00000000E+00
  0.00000000E+00  0.00000000E+00  0.00000000E+00
  0.00000000E+00  0.00000000E+00  0.00000000E+00
  0.00000000E+00  0.00000000E+00  0.00000000E+00
  0.00000000E+00  0.00000000E+00  0.00000000E+00
  0.00000000E+00  0.00000000E+00  0.00000000E+00
  0.00000000E+00  0.00000000E+00  0.00000000E+00
  0.00000000E+00  0.00000000E+00  0.00000000E+00
  0.00000000E+00  0.00000000E+00  0.00000000E+00
  0.00000000E+00  0.00000000E+00  0.00000000E+00
  0.00000000E+00  0.00000000E+00  0.00000000E+00
  0.00000000E+00  0.00000000E+00  0.00000000E+00
