Pt111                                   
   1.00000000000000     
    11.2227001190000006    0.0000000000000000    0.0000000000000000
     5.6113500595000003    9.7191434021000003    0.0000000000000000
     0.0000000000000000    0.0000000000000000   22.0000000000000000
   Pt   H 
    80     1
Direct
  0.7846508015872736  0.8692834995610756  0.3270659661165007
  0.0347476032510519  0.8694410887693369  0.3267684585499737
  0.0346938322824677  0.6190355635928549  0.3268300239271740
  0.7870904476260810  0.8677401033194432  0.0231204056931727
  0.0366434800358641  0.8681520654507662  0.0229970031960432
  0.0368136582617869  0.6179460760191736  0.0230356685503767
  0.6193869536630421  0.2016757553747850  0.1261810109631461
  0.3695994866453609  0.9514682072745519  0.1260496402458476
  0.0349264026836725  0.3690335996284592  0.3267203182505870
  0.0366789800189157  0.3681719326100305  0.0230107046045108
  0.8690377515042682  0.2018938181117578  0.1259804125546546
  0.9518782581545107  0.5356052187576377  0.2264764239839832
  0.2843506192406990  0.1195155164913201  0.3267045129653555
  0.5343928566915084  0.6191044216568776  0.3278669454884985
  0.2847527644828096  0.3693862760872657  0.3271409013464269
  0.2874880973863881  0.1175873793660049  0.0230098501811145
  0.5367630336455995  0.6178076029611799  0.0230757948938184
  0.2868262338855977  0.3681003555825145  0.0230094362876248
  0.6192699114992197  0.9518092872340445  0.1261414064528238
  0.7016917352957966  0.7854710151459459  0.2265829820121000
  0.8692942218081896  0.7018038605671741  0.1261761974237707
  0.6190247356248685  0.4519043059722659  0.1261612129799928
  0.2847287198208608  0.8691548523213054  0.3270877119867536
  0.2870321862769096  0.8675973440604008  0.0230003136223859
  0.6192122158804935  0.7018873326696689  0.1261253994696772
  0.2018621833810887  0.0357459850993031  0.2261980980415525
  0.8675108753559964  0.9528584403762277  0.4301744633018902
  0.1164513682205306  0.4530172967912500  0.4300355088108176
  0.1162160924867928  0.9539242794149529  0.4299321149979359
  0.8687050313239112  0.4527578023091550  0.4299584696001783
  0.3671243313115750  0.9541232737463285  0.4299781825611740
  0.8685061952105356  0.2019837693602267  0.4299505663251287
  0.1174637786577992  0.2030118697963378  0.4300744658263655
  0.6175188832811483  0.9529032425294192  0.4301906457417519
  0.8671331952484315  0.7030587338417094  0.4302576934007024
  0.3675148657727347  0.2017707719329440  0.4299888194655618
  0.3643683687462674  0.7090104711107795  0.4314453912308996
  0.6233621593226076  0.4498037014627528  0.4313791954359270
  0.1135475443287102  0.7046819268820408  0.4297667602417178
  0.6191669241768327  0.1991626642031797  0.4297058522183307
  0.5343742689860755  0.3697371479476506  0.3278691142760956
  0.5371815983373240  0.3676043223681105  0.0230338902998868
  0.5344731468080410  0.1192947150688148  0.3267634312032783
  0.5371443848554309  0.1177160671967497  0.0229913622831798
  0.8689651949967327  0.4520932141259456  0.1260682116433064
  0.1193194507573213  0.4521216744979112  0.1260990037084954
  0.0348538770299659  0.1194706486580038  0.3267371195205226
  0.0369003797505823  0.1176078515294415  0.0229273104986913
  0.1193242419236420  0.9515461349347515  0.1260660678145337
  0.3643345141895645  0.4500252330693347  0.4315259149155870
  0.4518552424953667  0.5356819248586908  0.2269813752001897
  0.6192180648984493  0.7047730377873189  0.4297284810838240
  0.3695938038055954  0.2019243308449745  0.1260661068335820
  0.1193404032443574  0.2018120052587893  0.1254385915939737
  0.9520752159992147  0.7855532456773742  0.2265864044761372
  0.7847789061434747  0.6190315792555653  0.3268282589631574
  0.2849687908837427  0.6191593793959549  0.3279033594920768
  0.7868501522003332  0.6180633509082157  0.0230302163078352
  0.2869037378574075  0.6178205688325534  0.0230561382297160
  0.3693125760783572  0.7015583722315014  0.1261953476413178
  0.3694973707578336  0.4519140061385391  0.1261632829246716
  0.2019321584529070  0.2856290224747239  0.2262187431557033
  0.7844223185928334  0.3694692779500803  0.3270866626381942
  0.7867651633320154  0.3680720444633909  0.0229550161381957
  0.9518691333558109  0.0358000872539669  0.2264468573714783
  0.4517470931510442  0.7853396618677700  0.2265909577999678
  0.7015033001765107  0.5355801798793498  0.2265768338026943
  0.2023305243209224  0.7853051949553973  0.2265961142019635
  0.4517690997238475  0.0356959339056804  0.2264576621428123
  0.1190867718682637  0.7020062206197658  0.1261582660746004
  0.7017988657442976  0.0358587311577670  0.2265814191383379
  0.7847941221428698  0.1194643322703062  0.3268220085566149
  0.5343674452566668  0.8695283790150438  0.3268513183084440
  0.7869516461282331  0.1177127060332696  0.0229514336491543
  0.5371474802357067  0.8679549995633189  0.0229778257653898
  0.2023629216110633  0.5355227711229484  0.2266065896377628
  0.9519805314363229  0.2856059040314902  0.2261963416396946
  0.8692652806135905  0.9518694988287867  0.1261608114481933
  0.7016100615761509  0.2860508226464178  0.2265582386685994
  0.4517189259895233  0.2861324928351320  0.2265971149878266
  0.4510737602144335  0.5364243000967416  0.4678459130180521
 
  0.00000000E+00  0.00000000E+00  0.00000000E+00
  0.00000000E+00  0.00000000E+00  0.00000000E+00
  0.00000000E+00  0.00000000E+00  0.00000000E+00
  0.00000000E+00  0.00000000E+00  0.00000000E+00
  0.00000000E+00  0.00000000E+00  0.00000000E+00
  0.00000000E+00  0.00000000E+00  0.00000000E+00
  0.00000000E+00  0.00000000E+00  0.00000000E+00
  0.00000000E+00  0.00000000E+00  0.00000000E+00
  0.00000000E+00  0.00000000E+00  0.00000000E+00
  0.00000000E+00  0.00000000E+00  0.00000000E+00
  0.00000000E+00  0.00000000E+00  0.00000000E+00
  0.00000000E+00  0.00000000E+00  0.00000000E+00
  0.00000000E+00  0.00000000E+00  0.00000000E+00
  0.00000000E+00  0.00000000E+00  0.00000000E+00
  0.00000000E+00  0.00000000E+00  0.00000000E+00
  0.00000000E+00  0.00000000E+00  0.00000000E+00
  0.00000000E+00  0.00000000E+00  0.00000000E+00
  0.00000000E+00  0.00000000E+00  0.00000000E+00
  0.00000000E+00  0.00000000E+00  0.00000000E+00
  0.00000000E+00  0.00000000E+00  0.00000000E+00
  0.00000000E+00  0.00000000E+00  0.00000000E+00
  0.00000000E+00  0.00000000E+00  0.00000000E+00
  0.00000000E+00  0.00000000E+00  0.00000000E+00
  0.00000000E+00  0.00000000E+00  0.00000000E+00
  0.00000000E+00  0.00000000E+00  0.00000000E+00
  0.00000000E+00  0.00000000E+00  0.00000000E+00
  0.00000000E+00  0.00000000E+00  0.00000000E+00
  0.00000000E+00  0.00000000E+00  0.00000000E+00
  0.00000000E+00  0.00000000E+00  0.00000000E+00
  0.00000000E+00  0.00000000E+00  0.00000000E+00
  0.00000000E+00  0.00000000E+00  0.00000000E+00
  0.00000000E+00  0.00000000E+00  0.00000000E+00
  0.00000000E+00  0.00000000E+00  0.00000000E+00
  0.00000000E+00  0.00000000E+00  0.00000000E+00
  0.00000000E+00  0.00000000E+00  0.00000000E+00
  0.00000000E+00  0.00000000E+00  0.00000000E+00
  0.00000000E+00  0.00000000E+00  0.00000000E+00
  0.00000000E+00  0.00000000E+00  0.00000000E+00
  0.00000000E+00  0.00000000E+00  0.00000000E+00
  0.00000000E+00  0.00000000E+00  0.00000000E+00
  0.00000000E+00  0.00000000E+00  0.00000000E+00
  0.00000000E+00  0.00000000E+00  0.00000000E+00
  0.00000000E+00  0.00000000E+00  0.00000000E+00
  0.00000000E+00  0.00000000E+00  0.00000000E+00
  0.00000000E+00  0.00000000E+00  0.00000000E+00
  0.00000000E+00  0.00000000E+00  0.00000000E+00
  0.00000000E+00  0.00000000E+00  0.00000000E+00
  0.00000000E+00  0.00000000E+00  0.00000000E+00
  0.00000000E+00  0.00000000E+00  0.00000000E+00
  0.00000000E+00  0.00000000E+00  0.00000000E+00
  0.00000000E+00  0.00000000E+00  0.00000000E+00
  0.00000000E+00  0.00000000E+00  0.00000000E+00
  0.00000000E+00  0.00000000E+00  0.00000000E+00
  0.00000000E+00  0.00000000E+00  0.00000000E+00
  0.00000000E+00  0.00000000E+00  0.00000000E+00
  0.00000000E+00  0.00000000E+00  0.00000000E+00
  0.00000000E+00  0.00000000E+00  0.00000000E+00
  0.00000000E+00  0.00000000E+00  0.00000000E+00
  0.00000000E+00  0.00000000E+00  0.00000000E+00
  0.00000000E+00  0.00000000E+00  0.00000000E+00
  0.00000000E+00  0.00000000E+00  0.00000000E+00
  0.00000000E+00  0.00000000E+00  0.00000000E+00
  0.00000000E+00  0.00000000E+00  0.00000000E+00
  0.00000000E+00  0.00000000E+00  0.00000000E+00
  0.00000000E+00  0.00000000E+00  0.00000000E+00
  0.00000000E+00  0.00000000E+00  0.00000000E+00
  0.00000000E+00  0.00000000E+00  0.00000000E+00
  0.00000000E+00  0.00000000E+00  0.00000000E+00
  0.00000000E+00  0.00000000E+00  0.00000000E+00
  0.00000000E+00  0.00000000E+00  0.00000000E+00
  0.00000000E+00  0.00000000E+00  0.00000000E+00
  0.00000000E+00  0.00000000E+00  0.00000000E+00
  0.00000000E+00  0.00000000E+00  0.00000000E+00
  0.00000000E+00  0.00000000E+00  0.00000000E+00
  0.00000000E+00  0.00000000E+00  0.00000000E+00
  0.00000000E+00  0.00000000E+00  0.00000000E+00
  0.00000000E+00  0.00000000E+00  0.00000000E+00
  0.00000000E+00  0.00000000E+00  0.00000000E+00
  0.00000000E+00  0.00000000E+00  0.00000000E+00
  0.00000000E+00  0.00000000E+00  0.00000000E+00
  0.00000000E+00  0.00000000E+00  0.00000000E+00
