Pt   H                                  
   1.00000000000000     
    11.2227001190000006    0.0000000000000000    0.0000000000000000
     5.6113500595000003    9.7191434021000003    0.0000000000000000
     0.0000000000000000    0.0000000000000000   22.0000000000000000
   Pt   H 
    80     1
Direct
  0.7849363622390867  0.8691060429845765  0.3267587706972181
  0.0349555586440822  0.8690636638953018  0.3267741553075718
  0.0351842305112256  0.6190264156136718  0.3265676807391398
  0.7860433536928224  0.8682781270420576  0.0229263228708859
  0.0362402530956061  0.8682692793010984  0.0228772928421933
  0.0361198623244433  0.6183777688892159  0.0228746942052058
  0.6191711444919672  0.2018613135367127  0.1259755882106871
  0.3692874677149491  0.9514872616043244  0.1260007904685173
  0.0348127289794316  0.3689658226421019  0.3265772377422385
  0.0360744993470928  0.3684894043136898  0.0230471916793521
  0.8690536295658713  0.2019310651178712  0.1259210521556331
  0.9518001693857085  0.5355460221601052  0.2263479959687351
  0.2848154968781673  0.1189504374857618  0.3265999251821428
  0.5347394766057942  0.6188238403246751  0.3278897395796347
  0.2850421772334916  0.3692045187653774  0.3265080476188977
  0.2862952690139266  0.1182656711619486  0.0230552760091311
  0.5361999577714007  0.6183209436911302  0.0231583264452247
  0.2861940421857085  0.3684389933843206  0.0229014827201846
  0.6190134047815049  0.9520234318458042  0.1260017637150348
  0.7018919886036280  0.7854272258027836  0.2263908012441815
  0.8691088995266743  0.7019628215041194  0.1259865287159214
  0.6188801549110765  0.4519613065502140  0.1261691167832777
  0.2853871198161823  0.8682666266486698  0.3272484219978842
  0.2861176100353644  0.8682699165214260  0.0229525041489265
  0.6189072624057239  0.7018890724372209  0.1261213485324719
  0.2017210035331685  0.0357965304144316  0.2261531681064241
  0.8680803299491989  0.9526989372478665  0.4298220421645276
  0.1175725637879268  0.4526837200144671  0.4297191364905552
  0.1178300653588262  0.9526158476959768  0.4297247532461607
  0.8702390921741812  0.4518560852410963  0.4296655411874775
  0.3672087911532600  0.9548647545055706  0.4296818609381800
  0.8679521244233578  0.2025318778826655  0.4297347762307725
  0.1177863852955042  0.2025186484873582  0.4296116063533442
  0.6180005899716795  0.9532892640934139  0.4298295811316467
  0.8686163836959125  0.7026812510167694  0.4298438768430815
  0.3680311025188989  0.2022984589613100  0.4297196332745962
  0.3654396972046581  0.7056401649438778  0.4326026865502717
  0.6209792485269880  0.4501757200142809  0.4326222609231323
  0.1169999602303921  0.7025926800736573  0.4297985218841514
  0.6178902988678594  0.2017241771870761  0.4298088141227055
  0.5352830227519700  0.3694390416549703  0.3273609422356384
  0.5362133562980208  0.3682786157457353  0.0229725303876415
  0.5349671042107463  0.1192561017777604  0.3265682154131522
  0.5362651657502663  0.1182373411142126  0.0228783866952247
  0.8685712861781106  0.4522082149259345  0.1260133065882098
  0.1191305695965756  0.4520588323240504  0.1258987111953589
  0.0348512754555727  0.1188998115950839  0.3266970727320884
  0.0360215397997711  0.1181430580960419  0.0227454324945356
  0.1189649589975851  0.9519683318543297  0.1259239403709549
  0.3657715375681626  0.4504940777175435  0.4294068696699418
  0.4519379208782184  0.5355516559197449  0.2268036841373030
  0.6206662733379069  0.7053443667195382  0.4299630214424559
  0.3691476417611686  0.2020468198995761  0.1258843851563900
  0.1189628500161548  0.2019988915618599  0.1256006960244319
  0.9519524445717039  0.7856116711087190  0.2263860994082301
  0.7848284067688152  0.6191176492060558  0.3268507187056281
  0.2853072688691216  0.6193684420259398  0.3273599768869662
  0.7861844952356326  0.6184585938553714  0.0229607334486756
  0.2861518804776056  0.6183442675489689  0.0229922554546203
  0.3690421558035384  0.7018388507098416  0.1261466110586736
  0.3692012900119113  0.4520847870706289  0.1260317194176892
  0.2020114468571499  0.2855107414379450  0.2263610076290614
  0.7841045235219193  0.3695453973219904  0.3272548954976194
  0.7860114951512842  0.3683696668898773  0.0229589842758419
  0.9519438870949674  0.0355659498129598  0.2263399273018642
  0.4518029770913679  0.7854314130845357  0.2266349337849836
  0.7018668707398485  0.5354009558492260  0.2266391871164120
  0.2022089305457028  0.7854748761829737  0.2265707366400015
  0.4519152783402272  0.0354193041465364  0.2263522443679262
  0.1188735960383798  0.7021628583625115  0.1259682480089594
  0.7020500953339889  0.0355471203848031  0.2263916757127878
  0.7849325094212356  0.1190662048232301  0.3268032746074346
  0.5349604722302982  0.8689976482582731  0.3268418767442692
  0.7861300210365983  0.1183880752285703  0.0229063289648592
  0.5363030440288076  0.8683489306676510  0.0229414996458989
  0.2020050280304086  0.5356794176681757  0.2262420033361848
  0.9522084837309457  0.2852728649075613  0.2261766732279968
  0.8690233511027570  0.9519184951265491  0.1259200533569703
  0.7019557158065280  0.2857144515194079  0.2265791017145398
  0.4520891602843479  0.2855664805581744  0.2262460347693167
  0.5088489351701621  0.5937160056813965  0.4771057353459097
 
  0.00000000E+00  0.00000000E+00  0.00000000E+00
  0.00000000E+00  0.00000000E+00  0.00000000E+00
  0.00000000E+00  0.00000000E+00  0.00000000E+00
  0.00000000E+00  0.00000000E+00  0.00000000E+00
  0.00000000E+00  0.00000000E+00  0.00000000E+00
  0.00000000E+00  0.00000000E+00  0.00000000E+00
  0.00000000E+00  0.00000000E+00  0.00000000E+00
  0.00000000E+00  0.00000000E+00  0.00000000E+00
  0.00000000E+00  0.00000000E+00  0.00000000E+00
  0.00000000E+00  0.00000000E+00  0.00000000E+00
  0.00000000E+00  0.00000000E+00  0.00000000E+00
  0.00000000E+00  0.00000000E+00  0.00000000E+00
  0.00000000E+00  0.00000000E+00  0.00000000E+00
  0.00000000E+00  0.00000000E+00  0.00000000E+00
  0.00000000E+00  0.00000000E+00  0.00000000E+00
  0.00000000E+00  0.00000000E+00  0.00000000E+00
  0.00000000E+00  0.00000000E+00  0.00000000E+00
  0.00000000E+00  0.00000000E+00  0.00000000E+00
  0.00000000E+00  0.00000000E+00  0.00000000E+00
  0.00000000E+00  0.00000000E+00  0.00000000E+00
  0.00000000E+00  0.00000000E+00  0.00000000E+00
  0.00000000E+00  0.00000000E+00  0.00000000E+00
  0.00000000E+00  0.00000000E+00  0.00000000E+00
  0.00000000E+00  0.00000000E+00  0.00000000E+00
  0.00000000E+00  0.00000000E+00  0.00000000E+00
  0.00000000E+00  0.00000000E+00  0.00000000E+00
  0.00000000E+00  0.00000000E+00  0.00000000E+00
  0.00000000E+00  0.00000000E+00  0.00000000E+00
  0.00000000E+00  0.00000000E+00  0.00000000E+00
  0.00000000E+00  0.00000000E+00  0.00000000E+00
  0.00000000E+00  0.00000000E+00  0.00000000E+00
  0.00000000E+00  0.00000000E+00  0.00000000E+00
  0.00000000E+00  0.00000000E+00  0.00000000E+00
  0.00000000E+00  0.00000000E+00  0.00000000E+00
  0.00000000E+00  0.00000000E+00  0.00000000E+00
  0.00000000E+00  0.00000000E+00  0.00000000E+00
  0.00000000E+00  0.00000000E+00  0.00000000E+00
  0.00000000E+00  0.00000000E+00  0.00000000E+00
  0.00000000E+00  0.00000000E+00  0.00000000E+00
  0.00000000E+00  0.00000000E+00  0.00000000E+00
  0.00000000E+00  0.00000000E+00  0.00000000E+00
  0.00000000E+00  0.00000000E+00  0.00000000E+00
  0.00000000E+00  0.00000000E+00  0.00000000E+00
  0.00000000E+00  0.00000000E+00  0.00000000E+00
  0.00000000E+00  0.00000000E+00  0.00000000E+00
  0.00000000E+00  0.00000000E+00  0.00000000E+00
  0.00000000E+00  0.00000000E+00  0.00000000E+00
  0.00000000E+00  0.00000000E+00  0.00000000E+00
  0.00000000E+00  0.00000000E+00  0.00000000E+00
  0.00000000E+00  0.00000000E+00  0.00000000E+00
  0.00000000E+00  0.00000000E+00  0.00000000E+00
  0.00000000E+00  0.00000000E+00  0.00000000E+00
  0.00000000E+00  0.00000000E+00  0.00000000E+00
  0.00000000E+00  0.00000000E+00  0.00000000E+00
  0.00000000E+00  0.00000000E+00  0.00000000E+00
  0.00000000E+00  0.00000000E+00  0.00000000E+00
  0.00000000E+00  0.00000000E+00  0.00000000E+00
  0.00000000E+00  0.00000000E+00  0.00000000E+00
  0.00000000E+00  0.00000000E+00  0.00000000E+00
  0.00000000E+00  0.00000000E+00  0.00000000E+00
  0.00000000E+00  0.00000000E+00  0.00000000E+00
  0.00000000E+00  0.00000000E+00  0.00000000E+00
  0.00000000E+00  0.00000000E+00  0.00000000E+00
  0.00000000E+00  0.00000000E+00  0.00000000E+00
  0.00000000E+00  0.00000000E+00  0.00000000E+00
  0.00000000E+00  0.00000000E+00  0.00000000E+00
  0.00000000E+00  0.00000000E+00  0.00000000E+00
  0.00000000E+00  0.00000000E+00  0.00000000E+00
  0.00000000E+00  0.00000000E+00  0.00000000E+00
  0.00000000E+00  0.00000000E+00  0.00000000E+00
  0.00000000E+00  0.00000000E+00  0.00000000E+00
  0.00000000E+00  0.00000000E+00  0.00000000E+00
  0.00000000E+00  0.00000000E+00  0.00000000E+00
  0.00000000E+00  0.00000000E+00  0.00000000E+00
  0.00000000E+00  0.00000000E+00  0.00000000E+00
  0.00000000E+00  0.00000000E+00  0.00000000E+00
  0.00000000E+00  0.00000000E+00  0.00000000E+00
  0.00000000E+00  0.00000000E+00  0.00000000E+00
  0.00000000E+00  0.00000000E+00  0.00000000E+00
  0.00000000E+00  0.00000000E+00  0.00000000E+00
  0.00000000E+00  0.00000000E+00  0.00000000E+00
