Pt111                                   
   1.00000000000000     
    11.2227001190000006    0.0000000000000000    0.0000000000000000
     5.6113500595000003    9.7191434021000003    0.0000000000000000
     0.0000000000000000    0.0000000000000000   22.0000000000000000
   Pt   H 
    80     2
Selective dynamics
Direct
  0.7847645078110972  0.8692109055901653  0.3269099030818197   F   F   F
  0.0346505422716916  0.8693210791163395  0.3270653926045455   F   F   F
  0.0346593397418218  0.6192492654547692  0.3270488254545469   F   F   F
  0.7865279358320763  0.8681218984357173  0.0230186636272762   F   F   F
  0.0365892092669995  0.8681264262524309  0.0230600770045442   F   F   F
  0.0365740833850623  0.6180192765858550  0.0230766070818191   F   F   F
  0.6191005257356181  0.2019986185383189  0.1261462161318150   F   F   F
  0.3692613597566421  0.9517191119231114  0.1261159131545426   F   F   F
  0.0348347802862747  0.3692464695422188  0.3268907943318169   F   F   F
  0.0366681273751439  0.3679866200376480  0.0230478876181834   F   F   F
  0.8690175056355613  0.2019718345626913  0.1261148867318198   F   F   F
  0.9518520698685151  0.5357127416470675  0.2265259392636381   F   F   F
  0.2848041969251156  0.1192793210510246  0.3269051373545437   F   F   F
  0.5349253720114433  0.6193291735359523  0.3269445702863649   F   F   F
  0.2847142131373062  0.3691484578182909  0.3270637013181812   F   F   F
  0.2864371967586763  0.1181469625349791  0.0230659732318159   F   F   F
  0.5365372356964357  0.6180608275418678  0.0231275782772755   F   F   F
  0.2865146800625027  0.3680430210677912  0.0230897426272705   F   F   F
  0.6191981466248535  0.9518502688931534  0.1260762196500025   F   F   F
  0.7019582063435976  0.7855458707966321  0.2265410643045485   F   F   F
  0.8691724073928881  0.7019081991244178  0.1260587084363607   F   F   F
  0.6189887871154411  0.4519569540820711  0.1262427230727283   F   F   F
  0.2847450141128931  0.8693524126287073  0.3270838729409107   F   F   F
  0.2865116091901072  0.8681449356202435  0.0230774485772756   F   F   F
  0.6190723348120528  0.7018502613230382  0.1261370814409091   F   F   F
  0.2020582418194223  0.0354255510136454  0.2265340462318193   F   F   F
  0.8676481867680579  0.9527934436484529  0.4300010239954517   F   F   F
  0.1178826667958788  0.4527428511291660  0.4300167912909103   F   F   F
  0.1176911685271804  0.9527954248930115  0.4300205593136397   F   F   F
  0.8675353612153884  0.4528212413605388  0.4300334956727241   F   F   F
  0.3676959913126439  0.9526528498591205  0.4300394814590902   F   F   F
  0.8676502306744567  0.2028801469143815  0.4300251194545481   F   F   F
  0.1176689432472031  0.2028271374176924  0.4299210036545489   F   F   F
  0.6176247052907584  0.9528541736197695  0.4299804852272757   F   F   F
  0.8677934097962776  0.7027674889460087  0.4299928563363622   F   F   F
  0.3676471104055636  0.2030645767273640  0.4300298166454510   F   F   F
  0.3673729761125628  0.7029692356451633  0.4299382874863653   F   F   F
  0.6178168347068294  0.4525030082228980  0.4299153810863601   F   F   F
  0.1176568503218860  0.7027659129223451  0.4302126761181810   F   F   F
  0.6176458899111239  0.2027689470323253  0.4302235612727259   F   F   F
  0.5348514234898261  0.3689853309629285  0.3269851238227304   F   F   F
  0.5365490445498082  0.3681337957136108  0.0231334248636372   F   F   F
  0.5348758967917107  0.1190483852980293  0.3270461096999995   F   F   F
  0.5365223212673556  0.1180841654576312  0.0230637770636335   F   F   F
  0.8690353776068491  0.4519433724016153  0.1260998875090920   F   F   F
  0.1192406545712430  0.4519803233020383  0.1261378215500031   F   F   F
  0.0348004650308766  0.1191988673250464  0.3268754520909098   F   F   F
  0.0366523957794200  0.1181683003722185  0.0230724783409073   F   F   F
  0.1192603632330531  0.9516906360905679  0.1261257486545446   F   F   F
  0.3676891676892780  0.4527282056512618  0.4301542801954525   F   F   F
  0.4518962212555024  0.5356290822476382  0.2267136109318173   F   F   F
  0.6177347757460581  0.7029202795406704  0.4300471885727291   F   F   F
  0.3693084507075071  0.2019323995441766  0.1261258219727281   F   F   F
  0.1191400490590979  0.2019025265103096  0.1261704854590917   F   F   F
  0.9519486219186106  0.7856084533077521  0.2265462619818166   F   F   F
  0.7849289728490518  0.6192424482799197  0.3270460001409106   F   F   F
  0.2845769442650976  0.6192316517214493  0.3270023023409081   F   F   F
  0.7865782225883891  0.6180139280177883  0.0230749739545431   F   F   F
  0.2865743793094069  0.6180737355621346  0.0231567174636353   F   F   F
  0.3692580286514158  0.7017220673919056  0.1262325936545423   F   F   F
  0.3692555099470596  0.4519193951342402  0.1262472722818160   F   F   F
  0.2020125500845040  0.2856280246878740  0.2264946425954548   F   F   F
  0.7849168162231592  0.3691999891291502  0.3270665892681848   F   F   F
  0.7865724234675397  0.3680644347347624  0.0230720189863618   F   F   F
  0.9518608064737606  0.0355753039640589  0.2265303609500009   F   F   F
  0.4518696462768332  0.7856930092059429  0.2265944361545422   F   F   F
  0.7020295392961700  0.5355573191537957  0.2265854842318191   F   F   F
  0.2018840488418689  0.7857060227910608  0.2266211051045488   F   F   F
  0.4519946507617263  0.0355879044778007  0.2265233108999993   F   F   F
  0.1192516106602497  0.7018379662991876  0.1261571198181812   F   F   F
  0.7019488873323994  0.0356094424664235  0.2265493377818188   F   F   F
  0.7848624543075502  0.1190991055909194  0.3270784629318157   F   F   F
  0.5347890769813972  0.8694109176920080  0.3270047075772737   F   F   F
  0.7866483094158099  0.1180675956023123  0.0230741949227280   F   F   F
  0.5365269490931581  0.8681067706725045  0.0230574754772732   F   F   F
  0.2019001679982182  0.5355435786424749  0.2266211553500028   F   F   F
  0.9517536695859476  0.2857165092141756  0.2265205022727272   F   F   F
  0.8691940703270049  0.9518483909704543  0.1260573426500002   F   F   F
  0.7020668586564369  0.2855141407009611  0.2266100594727263   F   F   F
  0.4518728597804369  0.2855650513295558  0.2266229166545486   F   F   F
  0.4729468488547894  0.5583493956810486  0.5587530264272758   T   T   T
  0.5116012252529174  0.5971509530403695  0.5589971329090908   T   T   T
 
  0.00000000E+00  0.00000000E+00  0.00000000E+00
  0.00000000E+00  0.00000000E+00  0.00000000E+00
  0.00000000E+00  0.00000000E+00  0.00000000E+00
  0.00000000E+00  0.00000000E+00  0.00000000E+00
  0.00000000E+00  0.00000000E+00  0.00000000E+00
  0.00000000E+00  0.00000000E+00  0.00000000E+00
  0.00000000E+00  0.00000000E+00  0.00000000E+00
  0.00000000E+00  0.00000000E+00  0.00000000E+00
  0.00000000E+00  0.00000000E+00  0.00000000E+00
  0.00000000E+00  0.00000000E+00  0.00000000E+00
  0.00000000E+00  0.00000000E+00  0.00000000E+00
  0.00000000E+00  0.00000000E+00  0.00000000E+00
  0.00000000E+00  0.00000000E+00  0.00000000E+00
  0.00000000E+00  0.00000000E+00  0.00000000E+00
  0.00000000E+00  0.00000000E+00  0.00000000E+00
  0.00000000E+00  0.00000000E+00  0.00000000E+00
  0.00000000E+00  0.00000000E+00  0.00000000E+00
  0.00000000E+00  0.00000000E+00  0.00000000E+00
  0.00000000E+00  0.00000000E+00  0.00000000E+00
  0.00000000E+00  0.00000000E+00  0.00000000E+00
  0.00000000E+00  0.00000000E+00  0.00000000E+00
  0.00000000E+00  0.00000000E+00  0.00000000E+00
  0.00000000E+00  0.00000000E+00  0.00000000E+00
  0.00000000E+00  0.00000000E+00  0.00000000E+00
  0.00000000E+00  0.00000000E+00  0.00000000E+00
  0.00000000E+00  0.00000000E+00  0.00000000E+00
  0.00000000E+00  0.00000000E+00  0.00000000E+00
  0.00000000E+00  0.00000000E+00  0.00000000E+00
  0.00000000E+00  0.00000000E+00  0.00000000E+00
  0.00000000E+00  0.00000000E+00  0.00000000E+00
  0.00000000E+00  0.00000000E+00  0.00000000E+00
  0.00000000E+00  0.00000000E+00  0.00000000E+00
  0.00000000E+00  0.00000000E+00  0.00000000E+00
  0.00000000E+00  0.00000000E+00  0.00000000E+00
  0.00000000E+00  0.00000000E+00  0.00000000E+00
  0.00000000E+00  0.00000000E+00  0.00000000E+00
  0.00000000E+00  0.00000000E+00  0.00000000E+00
  0.00000000E+00  0.00000000E+00  0.00000000E+00
  0.00000000E+00  0.00000000E+00  0.00000000E+00
  0.00000000E+00  0.00000000E+00  0.00000000E+00
  0.00000000E+00  0.00000000E+00  0.00000000E+00
  0.00000000E+00  0.00000000E+00  0.00000000E+00
  0.00000000E+00  0.00000000E+00  0.00000000E+00
  0.00000000E+00  0.00000000E+00  0.00000000E+00
  0.00000000E+00  0.00000000E+00  0.00000000E+00
  0.00000000E+00  0.00000000E+00  0.00000000E+00
  0.00000000E+00  0.00000000E+00  0.00000000E+00
  0.00000000E+00  0.00000000E+00  0.00000000E+00
  0.00000000E+00  0.00000000E+00  0.00000000E+00
  0.00000000E+00  0.00000000E+00  0.00000000E+00
  0.00000000E+00  0.00000000E+00  0.00000000E+00
  0.00000000E+00  0.00000000E+00  0.00000000E+00
  0.00000000E+00  0.00000000E+00  0.00000000E+00
  0.00000000E+00  0.00000000E+00  0.00000000E+00
  0.00000000E+00  0.00000000E+00  0.00000000E+00
  0.00000000E+00  0.00000000E+00  0.00000000E+00
  0.00000000E+00  0.00000000E+00  0.00000000E+00
  0.00000000E+00  0.00000000E+00  0.00000000E+00
  0.00000000E+00  0.00000000E+00  0.00000000E+00
  0.00000000E+00  0.00000000E+00  0.00000000E+00
  0.00000000E+00  0.00000000E+00  0.00000000E+00
  0.00000000E+00  0.00000000E+00  0.00000000E+00
  0.00000000E+00  0.00000000E+00  0.00000000E+00
  0.00000000E+00  0.00000000E+00  0.00000000E+00
  0.00000000E+00  0.00000000E+00  0.00000000E+00
  0.00000000E+00  0.00000000E+00  0.00000000E+00
  0.00000000E+00  0.00000000E+00  0.00000000E+00
  0.00000000E+00  0.00000000E+00  0.00000000E+00
  0.00000000E+00  0.00000000E+00  0.00000000E+00
  0.00000000E+00  0.00000000E+00  0.00000000E+00
  0.00000000E+00  0.00000000E+00  0.00000000E+00
  0.00000000E+00  0.00000000E+00  0.00000000E+00
  0.00000000E+00  0.00000000E+00  0.00000000E+00
  0.00000000E+00  0.00000000E+00  0.00000000E+00
  0.00000000E+00  0.00000000E+00  0.00000000E+00
  0.00000000E+00  0.00000000E+00  0.00000000E+00
  0.00000000E+00  0.00000000E+00  0.00000000E+00
  0.00000000E+00  0.00000000E+00  0.00000000E+00
  0.00000000E+00  0.00000000E+00  0.00000000E+00
  0.00000000E+00  0.00000000E+00  0.00000000E+00
  0.00000000E+00  0.00000000E+00  0.00000000E+00
  0.00000000E+00  0.00000000E+00  0.00000000E+00
