10.46-high                              
   1.00000000000000     
    10.4600000381000005    0.0000000000000000    0.0000000000000000
     5.2300000191000002    9.0586257565999997    0.0000000000000000
     0.0000000000000000    0.0000000000000000   22.0000000000000000
   Pt   Fe   Co   Cu   Ni   H 
    42    10     9    10     9     1
Selective dynamics
Direct
  0.7795101786822244  0.8682533381020228  0.3241720106347395   T   T   T
  0.0388183593069552  0.8684528939355638  0.3262898157345819   T   T   T
  0.0343474517694025  0.6187513181342306  0.3268586173692797   T   T   T
  0.0301486716522663  0.3677086678657231  0.3253569244763042   T   T   T
  0.2881820599701144  0.1088301204647154  0.3233520744105829   T   T   T
  0.2862787605139071  0.3691512538432897  0.3232644533010009   T   T   T
  0.8646688719993207  0.7049857790015324  0.1222998450000006   F   F   F
  0.8683654146216246  0.9492857172165210  0.4381636022871247   T   T   T
  0.1191527343282412  0.4526165158820512  0.4346284648320696   T   T   T
  0.1225579081066002  0.9498242841910561  0.4327837093112932   T   T   T
  0.8696195776188338  0.4506759056891094  0.4320525823475829   T   T   T
  0.3699451911635274  0.9496793419076230  0.4281563822660691   T   T   T
  0.8681205557133477  0.2042583129020360  0.4308355141514355   T   T   T
  0.1205820623161203  0.2014378453711705  0.4395739334361172   T   T   T
  0.6194774068686592  0.9504556346529954  0.4307913097192951   T   T   T
  0.8688485576275914  0.7017854425156111  0.4369636667484984   T   T   T
  0.3702162676996143  0.2000986138153995  0.4328887244115915   T   T   T
  0.3700575925504762  0.7025611939240203  0.4313075888569612   T   T   T
  0.6205339343088658  0.4525440756931657  0.4284288145821272   T   T   T
  0.1208941777490113  0.6997606344802493  0.4470057134876764   T   T   T
  0.6179646257628687  0.2028371317574249  0.4322222216502573   T   T   T
  0.5399413425803111  0.3733702836549089  0.3217161057835077   T   T   T
  0.5347181808423400  0.1177832820654249  0.3214921450470227   T   T   T
  0.5387088449945026  0.1180223620035363  0.0323852710000025   F   F   F
  0.1229061669992149  0.4482501310026592  0.1229069019999969   F   F   F
  0.0347312134607618  0.1173315655307116  0.3205180993578272   T   T   T
  0.0334052510011063  0.1263050589948875  0.0270631940000001   F   F   F
  0.1140217539961768  0.9592387070046513  0.1256205170000015   F   F   F
  0.3688126831541416  0.4527310312209703  0.4326764302897269   T   T   T
  0.4535746069942803  0.5294572910030624  0.2203990980000015   F   F   F
  0.6187431219278484  0.7011974842243396  0.4354753879315978   T   T   T
  0.9489900690032442  0.7827401870017567  0.2236112900000009   F   F   F
  0.7739780565176275  0.6204710653194440  0.3228472551849236   T   T   T
  0.2905020509849038  0.6228205958167939  0.3247787229562240   T   T   T
  0.3775393079994345  0.6996762390014979  0.1228007950000034   F   F   F
  0.1990148359986961  0.2847226810005736  0.2228073859999995   F   F   F
  0.6985210319978847  0.5449136329982025  0.2191953660000010   F   F   F
  0.2021375509972643  0.7918219440044751  0.2238942059999971   F   F   F
  0.4509136879990976  0.0227837570008518  0.2188853569999978   F   F   F
  0.6963785559985993  0.0426407060053862  0.2154283309999983   F   F   F
  0.7850791316012545  0.1215749275613089  0.3203781037508178   T   T   T
  0.9473702909993094  0.2812973029980199  0.2183517329999987   F   F   F
  0.7886738530021518  0.8644281519958810  0.0287872629999981   F   F   F
  0.0450368569986850  0.8626276869984011  0.0295607660000030   F   F   F
  0.0419381929998366  0.6177767709989226  0.0278294189999997   F   F   F
  0.6176174129956635  0.2140363110030634  0.1243319940000021   F   F   F
  0.3690119070012230  0.9519866300047681  0.1225268520000000   F   F   F
  0.0249286510000459  0.3766440390049368  0.0322170279999980   F   F   F
  0.8625312130032441  0.2106725069980442  0.1232886749999977   F   F   F
  0.9476742869988115  0.5365924040032795  0.2262523169999966   F   F   F
  0.5338380426347645  0.6222645105915633  0.3270437769234277   T   T   T
  0.2883772690024173  0.1137155559991498  0.0325338950000003   F   F   F
  0.5504824240023964  0.6126948950017308  0.0356175679999993   F   F   F
  0.2897445219979105  0.3746422300013208  0.0322482019999981   F   F   F
  0.6142260530037902  0.9430302059974167  0.1245923580000010   F   F   F
  0.6989435809945590  0.7856200150022659  0.2205963350000033   F   F   F
  0.6229743600006756  0.4501393459961704  0.1238703839999999   F   F   F
  0.2909482986320904  0.8655796837708996  0.3206686950511128   T   T   T
  0.2909193859995014  0.8681523620037197  0.0312663890000024   F   F   F
  0.6201044439971781  0.7062132159990142  0.1241399159999972   F   F   F
  0.2056123299998021  0.0307007229984464  0.2259227360000011   F   F   F
  0.5362577209991812  0.3750078080027706  0.0295104469999998   F   F   F
  0.3717786720036287  0.2013498210002851  0.1265723710000017   F   F   F
  0.1215433559978081  0.7002740610051319  0.1260872539999980   F   F   F
  0.5321477764587763  0.8632570671564760  0.3222277490531960   T   T   T
  0.7868755759996588  0.1205942250019660  0.0274876929999976   F   F   F
  0.5384324900042401  0.8622688990003837  0.0293575660000016   F   F   F
  0.2017867139986862  0.5350951929952927  0.2228108750000004   F   F   F
  0.8649812590023060  0.9577480760013586  0.1220255770000023   F   F   F
  0.7014941730027431  0.2859032169987827  0.2208637760000016   F   F   F
  0.4474190369966706  0.2876733090006880  0.2205316149999987   F   F   F
  0.8678252290042252  0.4486707169946555  0.1240203380000011   F   F   F
  0.1229174259965049  0.2020265610008920  0.1240552120000018   F   F   F
  0.7843223469946352  0.6138231070037037  0.0322942649999973   F   F   F
  0.2837197769995612  0.6160386309958952  0.0336797160000017   F   F   F
  0.3761449209956851  0.4443194180052643  0.1229033580000021   F   F   F
  0.7821700093825649  0.3721118177408518  0.3219629789205319   T   T   T
  0.7825934670013694  0.3730426879969002  0.0335873089999978   F   F   F
  0.9480028170031005  0.0375464239983856  0.2205562589999985   F   F   F
  0.4523283130002156  0.7840277900017441  0.2263070449999987   F   F   F
  0.9451898710236178  0.0353788469973709  0.4818164838443753   T   T   T
 
  0.00000000E+00  0.00000000E+00  0.00000000E+00
  0.00000000E+00  0.00000000E+00  0.00000000E+00
  0.00000000E+00  0.00000000E+00  0.00000000E+00
  0.00000000E+00  0.00000000E+00  0.00000000E+00
  0.00000000E+00  0.00000000E+00  0.00000000E+00
  0.00000000E+00  0.00000000E+00  0.00000000E+00
  0.00000000E+00  0.00000000E+00  0.00000000E+00
  0.00000000E+00  0.00000000E+00  0.00000000E+00
  0.00000000E+00  0.00000000E+00  0.00000000E+00
  0.00000000E+00  0.00000000E+00  0.00000000E+00
  0.00000000E+00  0.00000000E+00  0.00000000E+00
  0.00000000E+00  0.00000000E+00  0.00000000E+00
  0.00000000E+00  0.00000000E+00  0.00000000E+00
  0.00000000E+00  0.00000000E+00  0.00000000E+00
  0.00000000E+00  0.00000000E+00  0.00000000E+00
  0.00000000E+00  0.00000000E+00  0.00000000E+00
  0.00000000E+00  0.00000000E+00  0.00000000E+00
  0.00000000E+00  0.00000000E+00  0.00000000E+00
  0.00000000E+00  0.00000000E+00  0.00000000E+00
  0.00000000E+00  0.00000000E+00  0.00000000E+00
  0.00000000E+00  0.00000000E+00  0.00000000E+00
  0.00000000E+00  0.00000000E+00  0.00000000E+00
  0.00000000E+00  0.00000000E+00  0.00000000E+00
  0.00000000E+00  0.00000000E+00  0.00000000E+00
  0.00000000E+00  0.00000000E+00  0.00000000E+00
  0.00000000E+00  0.00000000E+00  0.00000000E+00
  0.00000000E+00  0.00000000E+00  0.00000000E+00
  0.00000000E+00  0.00000000E+00  0.00000000E+00
  0.00000000E+00  0.00000000E+00  0.00000000E+00
  0.00000000E+00  0.00000000E+00  0.00000000E+00
  0.00000000E+00  0.00000000E+00  0.00000000E+00
  0.00000000E+00  0.00000000E+00  0.00000000E+00
  0.00000000E+00  0.00000000E+00  0.00000000E+00
  0.00000000E+00  0.00000000E+00  0.00000000E+00
  0.00000000E+00  0.00000000E+00  0.00000000E+00
  0.00000000E+00  0.00000000E+00  0.00000000E+00
  0.00000000E+00  0.00000000E+00  0.00000000E+00
  0.00000000E+00  0.00000000E+00  0.00000000E+00
  0.00000000E+00  0.00000000E+00  0.00000000E+00
  0.00000000E+00  0.00000000E+00  0.00000000E+00
  0.00000000E+00  0.00000000E+00  0.00000000E+00
  0.00000000E+00  0.00000000E+00  0.00000000E+00
  0.00000000E+00  0.00000000E+00  0.00000000E+00
  0.00000000E+00  0.00000000E+00  0.00000000E+00
  0.00000000E+00  0.00000000E+00  0.00000000E+00
  0.00000000E+00  0.00000000E+00  0.00000000E+00
  0.00000000E+00  0.00000000E+00  0.00000000E+00
  0.00000000E+00  0.00000000E+00  0.00000000E+00
  0.00000000E+00  0.00000000E+00  0.00000000E+00
  0.00000000E+00  0.00000000E+00  0.00000000E+00
  0.00000000E+00  0.00000000E+00  0.00000000E+00
  0.00000000E+00  0.00000000E+00  0.00000000E+00
  0.00000000E+00  0.00000000E+00  0.00000000E+00
  0.00000000E+00  0.00000000E+00  0.00000000E+00
  0.00000000E+00  0.00000000E+00  0.00000000E+00
  0.00000000E+00  0.00000000E+00  0.00000000E+00
  0.00000000E+00  0.00000000E+00  0.00000000E+00
  0.00000000E+00  0.00000000E+00  0.00000000E+00
  0.00000000E+00  0.00000000E+00  0.00000000E+00
  0.00000000E+00  0.00000000E+00  0.00000000E+00
  0.00000000E+00  0.00000000E+00  0.00000000E+00
  0.00000000E+00  0.00000000E+00  0.00000000E+00
  0.00000000E+00  0.00000000E+00  0.00000000E+00
  0.00000000E+00  0.00000000E+00  0.00000000E+00
  0.00000000E+00  0.00000000E+00  0.00000000E+00
  0.00000000E+00  0.00000000E+00  0.00000000E+00
  0.00000000E+00  0.00000000E+00  0.00000000E+00
  0.00000000E+00  0.00000000E+00  0.00000000E+00
  0.00000000E+00  0.00000000E+00  0.00000000E+00
  0.00000000E+00  0.00000000E+00  0.00000000E+00
  0.00000000E+00  0.00000000E+00  0.00000000E+00
  0.00000000E+00  0.00000000E+00  0.00000000E+00
  0.00000000E+00  0.00000000E+00  0.00000000E+00
  0.00000000E+00  0.00000000E+00  0.00000000E+00
  0.00000000E+00  0.00000000E+00  0.00000000E+00
  0.00000000E+00  0.00000000E+00  0.00000000E+00
  0.00000000E+00  0.00000000E+00  0.00000000E+00
  0.00000000E+00  0.00000000E+00  0.00000000E+00
  0.00000000E+00  0.00000000E+00  0.00000000E+00
  0.00000000E+00  0.00000000E+00  0.00000000E+00
  0.00000000E+00  0.00000000E+00  0.00000000E+00
