PtM\(2)                                 
   1.00000000000000     
    10.5600004195999997    0.0000000000000000    0.0000000000000000
     5.2800002097999998    9.1452286273999999    0.0000000000000000
     0.0000000000000000    0.0000000000000000   22.0000000000000000
   Ni   Pt   H 
    64    16     1
Selective dynamics
Direct
  0.7853583574555643  0.8690369476153279  0.3108425891772697   F   F   F
  0.0355186773379970  0.8691531278709874  0.3108396423863624   F   F   F
  0.0355915240924105  0.6190311794653809  0.3108716083590934   F   F   F
  0.7874164227977971  0.8671974162722194  0.0507952848136384   F   F   F
  0.0371812071091995  0.8676186467801656  0.0508907119909097   F   F   F
  0.0374684841738073  0.6171956253437827  0.0509625431272696   F   F   F
  0.6195540567074858  0.2015927253995997  0.1375472916636369   F   F   F
  0.3695075232167966  0.9518242491084408  0.1375177793318159   F   F   F
  0.0353730005449648  0.3691489564498482  0.3109416372727267   F   F   F
  0.0370441529486243  0.3679087439453710  0.0510122538363618   F   F   F
  0.8696832728241688  0.2017788834137235  0.1375957440090900   F   F   F
  0.9522376083518651  0.5354564368383876  0.2251685526045435   F   F   F
  0.2853764392044198  0.1193189135841450  0.3108561785136388   F   F   F
  0.5345810653505723  0.6186732760019069  0.3121884486090920   F   F   F
  0.2858727785141042  0.3698848035865581  0.3115442303454543   F   F   F
  0.2865437969577087  0.1185517643978500  0.0509036111818162   F   F   F
  0.5363140996786200  0.6178282872416645  0.0507770374954575   F   F   F
  0.2861704337189792  0.3683748117358761  0.0510002003863619   F   F   F
  0.6196234901564495  0.9517335769848856  0.1373589130318180   F   F   F
  0.7023139908838161  0.7852512067860289  0.2249446976363600   F   F   F
  0.8696404260012258  0.7014772441204471  0.1376145676590923   F   F   F
  0.6196299646022467  0.4516165522451487  0.1375203790909083   F   F   F
  0.2854811589810211  0.8687935371779645  0.3113788288409083   F   F   F
  0.2865937880566349  0.8680734555957201  0.0508346510318205   F   F   F
  0.6194335686725978  0.7016555716469099  0.1373394372999996   F   F   F
  0.2024009193583325  0.0357107318478072  0.2249160717045484   F   F   F
  0.5346326168822131  0.3705738694215128  0.3121896469681786   F   F   F
  0.5363670832523084  0.3680933396912849  0.0508732332090887   F   F   F
  0.5353791421590515  0.1193139975233422  0.3108218510727241   F   F   F
  0.5357740562855895  0.1186998764413190  0.0508076041818200   F   F   F
  0.8695889210879457  0.4517664038733358  0.1377370143909076   F   F   F
  0.1194625732134043  0.4516968078549155  0.1379299702136336   F   F   F
  0.0353472742121781  0.1193612118268419  0.3108295013545472   F   F   F
  0.0372294765921879  0.1183068973757955  0.0509084329409077   F   F   F
  0.1194236500933172  0.9519185222901285  0.1376218898500028   F   F   F
  0.4525203668045776  0.5353448459376438  0.2256467435409064   F   F   F
  0.3693977441760410  0.2019043691557201  0.1377741168545441   F   F   F
  0.1196225089457670  0.2018141881625866  0.1378220913363606   F   F   F
  0.9525099692390242  0.7853329313257262  0.2250120166772760   F   F   F
  0.7849579376190974  0.6189482221626292  0.3108666102409074   F   F   F
  0.2863948191770120  0.6187754568371915  0.3122016629136368   F   F   F
  0.7873265514095209  0.6175143423293008  0.0508263513318212   F   F   F
  0.2865996923037599  0.6174998734400674  0.0509254706590880   F   F   F
  0.3692545354116845  0.7017889581208507  0.1375475984363632   F   F   F
  0.3695484132066582  0.4516338335080263  0.1377474529818201   F   F   F
  0.2025375353826959  0.2857273726947724  0.2250596443454569   F   F   F
  0.7840577586246980  0.3697759308245310  0.3114819545863625   F   F   F
  0.7871940568885378  0.3681532496423969  0.0508772485772724   F   F   F
  0.9524324882268402  0.0355141551767133  0.2249871300136377   F   F   F
  0.4522116013755877  0.7848671791971000  0.2252255736818185   F   F   F
  0.7013934511952939  0.5355165082616793  0.2252290213500032   F   F   F
  0.2030705693503165  0.7850406343467355  0.2252913340954521   F   F   F
  0.4525632621522888  0.0352985915664092  0.2249818282590894   F   F   F
  0.1194697833192677  0.7016886593380178  0.1377196208045461   F   F   F
  0.7024520269140808  0.0353004848925025  0.2249502137954522   F   F   F
  0.7852526481557334  0.1193519231142872  0.3108009211727278   F   F   F
  0.5352204100390665  0.8690296061148857  0.3108218440545443   F   F   F
  0.7868336547289516  0.1183080422132221  0.0508386848136340   F   F   F
  0.5365155299928688  0.8682561142222056  0.0507168413227248   F   F   F
  0.2031816135208828  0.5354754412730571  0.2253469941090884   F   F   F
  0.9521279815215351  0.2857252795595642  0.2249937496045433   F   F   F
  0.8694806842594929  0.9517801275761713  0.1375034099181818   F   F   F
  0.7016958307343870  0.2860272054175752  0.2252480867227291   F   F   F
  0.4525026713224207  0.2860439165252160  0.2253452155136344   F   F   F
  0.8678712781380398  0.9534084215868148  0.4082215399545461   F   F   F
  0.1173111929935899  0.4534531897404293  0.4082237537681834   F   F   F
  0.1174180251969830  0.9535815779905050  0.4080817107000030   F   F   F
  0.8683112641551176  0.4534438507284122  0.4081884589772713   F   F   F
  0.3679218638589035  0.9536670428959582  0.4080811377318199   F   F   F
  0.8683282673983257  0.2027812398635689  0.4080681188727269   F   F   F
  0.1178532001807326  0.2032862678391609  0.4079058939000006   F   F   F
  0.6176033343422560  0.9533986485561314  0.4082461316409081   F   F   F
  0.8677249407194552  0.7034151750811830  0.4082859894045470   F   F   F
  0.3677799791912548  0.2028532559964447  0.4081234717363671   F   F   F
  0.3660657318486926  0.7067949745437545  0.4112685032090937   F   F   F
  0.6214720415835089  0.4513837761947315  0.4114788184500000   F   F   F
  0.1155976164693229  0.7044031080862609  0.4079511627909085   F   F   F
  0.6189296882072455  0.2011224121274822  0.4079248373181841   F   F   F
  0.3661594736119511  0.4515492505269449  0.4113131136090900   F   F   F
  0.6190080026974272  0.7044403718348065  0.4079895183590878   F   F   F
  0.4516144477540108  0.5387271848665307  0.4565383609227275   T   T   T
 
  0.00000000E+00  0.00000000E+00  0.00000000E+00
  0.00000000E+00  0.00000000E+00  0.00000000E+00
  0.00000000E+00  0.00000000E+00  0.00000000E+00
  0.00000000E+00  0.00000000E+00  0.00000000E+00
  0.00000000E+00  0.00000000E+00  0.00000000E+00
  0.00000000E+00  0.00000000E+00  0.00000000E+00
  0.00000000E+00  0.00000000E+00  0.00000000E+00
  0.00000000E+00  0.00000000E+00  0.00000000E+00
  0.00000000E+00  0.00000000E+00  0.00000000E+00
  0.00000000E+00  0.00000000E+00  0.00000000E+00
  0.00000000E+00  0.00000000E+00  0.00000000E+00
  0.00000000E+00  0.00000000E+00  0.00000000E+00
  0.00000000E+00  0.00000000E+00  0.00000000E+00
  0.00000000E+00  0.00000000E+00  0.00000000E+00
  0.00000000E+00  0.00000000E+00  0.00000000E+00
  0.00000000E+00  0.00000000E+00  0.00000000E+00
  0.00000000E+00  0.00000000E+00  0.00000000E+00
  0.00000000E+00  0.00000000E+00  0.00000000E+00
  0.00000000E+00  0.00000000E+00  0.00000000E+00
  0.00000000E+00  0.00000000E+00  0.00000000E+00
  0.00000000E+00  0.00000000E+00  0.00000000E+00
  0.00000000E+00  0.00000000E+00  0.00000000E+00
  0.00000000E+00  0.00000000E+00  0.00000000E+00
  0.00000000E+00  0.00000000E+00  0.00000000E+00
  0.00000000E+00  0.00000000E+00  0.00000000E+00
  0.00000000E+00  0.00000000E+00  0.00000000E+00
  0.00000000E+00  0.00000000E+00  0.00000000E+00
  0.00000000E+00  0.00000000E+00  0.00000000E+00
  0.00000000E+00  0.00000000E+00  0.00000000E+00
  0.00000000E+00  0.00000000E+00  0.00000000E+00
  0.00000000E+00  0.00000000E+00  0.00000000E+00
  0.00000000E+00  0.00000000E+00  0.00000000E+00
  0.00000000E+00  0.00000000E+00  0.00000000E+00
  0.00000000E+00  0.00000000E+00  0.00000000E+00
  0.00000000E+00  0.00000000E+00  0.00000000E+00
  0.00000000E+00  0.00000000E+00  0.00000000E+00
  0.00000000E+00  0.00000000E+00  0.00000000E+00
  0.00000000E+00  0.00000000E+00  0.00000000E+00
  0.00000000E+00  0.00000000E+00  0.00000000E+00
  0.00000000E+00  0.00000000E+00  0.00000000E+00
  0.00000000E+00  0.00000000E+00  0.00000000E+00
  0.00000000E+00  0.00000000E+00  0.00000000E+00
  0.00000000E+00  0.00000000E+00  0.00000000E+00
  0.00000000E+00  0.00000000E+00  0.00000000E+00
  0.00000000E+00  0.00000000E+00  0.00000000E+00
  0.00000000E+00  0.00000000E+00  0.00000000E+00
  0.00000000E+00  0.00000000E+00  0.00000000E+00
  0.00000000E+00  0.00000000E+00  0.00000000E+00
  0.00000000E+00  0.00000000E+00  0.00000000E+00
  0.00000000E+00  0.00000000E+00  0.00000000E+00
  0.00000000E+00  0.00000000E+00  0.00000000E+00
  0.00000000E+00  0.00000000E+00  0.00000000E+00
  0.00000000E+00  0.00000000E+00  0.00000000E+00
  0.00000000E+00  0.00000000E+00  0.00000000E+00
  0.00000000E+00  0.00000000E+00  0.00000000E+00
  0.00000000E+00  0.00000000E+00  0.00000000E+00
  0.00000000E+00  0.00000000E+00  0.00000000E+00
  0.00000000E+00  0.00000000E+00  0.00000000E+00
  0.00000000E+00  0.00000000E+00  0.00000000E+00
  0.00000000E+00  0.00000000E+00  0.00000000E+00
  0.00000000E+00  0.00000000E+00  0.00000000E+00
  0.00000000E+00  0.00000000E+00  0.00000000E+00
  0.00000000E+00  0.00000000E+00  0.00000000E+00
  0.00000000E+00  0.00000000E+00  0.00000000E+00
  0.00000000E+00  0.00000000E+00  0.00000000E+00
  0.00000000E+00  0.00000000E+00  0.00000000E+00
  0.00000000E+00  0.00000000E+00  0.00000000E+00
  0.00000000E+00  0.00000000E+00  0.00000000E+00
  0.00000000E+00  0.00000000E+00  0.00000000E+00
  0.00000000E+00  0.00000000E+00  0.00000000E+00
  0.00000000E+00  0.00000000E+00  0.00000000E+00
  0.00000000E+00  0.00000000E+00  0.00000000E+00
  0.00000000E+00  0.00000000E+00  0.00000000E+00
  0.00000000E+00  0.00000000E+00  0.00000000E+00
  0.00000000E+00  0.00000000E+00  0.00000000E+00
  0.00000000E+00  0.00000000E+00  0.00000000E+00
  0.00000000E+00  0.00000000E+00  0.00000000E+00
  0.00000000E+00  0.00000000E+00  0.00000000E+00
  0.00000000E+00  0.00000000E+00  0.00000000E+00
  0.00000000E+00  0.00000000E+00  0.00000000E+00
  0.00000000E+00  0.00000000E+00  0.00000000E+00
