10.66-high                              
   1.00000000000000     
    10.6599998474000000    0.0000000000000000    0.0000000000000000
     5.3299999237000000    9.2318306721999992    0.0000000000000000
     0.0000000000000000    0.0000000000000000   22.0000000000000000
   Pt   Fe   Co   Cu   Ni
    42    10     9    10     9
Direct
  0.7767016476970747  0.8693783021257591  0.3212187908649812
  0.0372203124581899  0.8698633124496072  0.3226140850242033
  0.0333140571027983  0.6184641767420569  0.3233887358343038
  0.0281484033532415  0.3693999443329462  0.3235599803543580
  0.2889359363738731  0.1080059784256145  0.3223210334383241
  0.2856202159574672  0.3702205021090964  0.3230647938842170
  0.8645921202379057  0.7020747225792657  0.1240185241830543
  0.8677832447940657  0.9520719248889588  0.4286846319919930
  0.1164793167069407  0.4535282629399402  0.4314229432061073
  0.1187530617025822  0.9525170822904749  0.4274224750302876
  0.8668428839034870  0.4519983496775223  0.4298215629238328
  0.3689513242909143  0.9499557692588404  0.4272496616325070
  0.8668645042014220  0.2035287588557197  0.4253947189738775
  0.1173784927256828  0.2020962650567195  0.4313377003047107
  0.6178918278311606  0.9513694683593603  0.4281992736644085
  0.8662177236143228  0.7034535528029412  0.4321052788336605
  0.3685407469057185  0.2008611698585532  0.4299842182238511
  0.3690142658323917  0.7043076379822741  0.4283290254865452
  0.6191833730847874  0.4544734139745926  0.4272390260142042
  0.1174905225734469  0.7027602572444772  0.4331944931618437
  0.6173923743232000  0.2034605273354601  0.4275021980233120
  0.5385340672734410  0.3752765732160551  0.3211766214884536
  0.5335237063677998  0.1191135053946671  0.3201996963429686
  0.5405408320082352  0.1173293000133991  0.0372746222918059
  0.1216750746350461  0.4479822769232434  0.1249868487047842
  0.0353142632234664  0.1170917996361959  0.3187997036132171
  0.0339810519413715  0.1283306851622164  0.0295837991867701
  0.1147840501461027  0.9589330595411798  0.1263764958482284
  0.3670058820194407  0.4538950025207816  0.4308110906125617
  0.4536622835781161  0.5320025776756011  0.2206584311044443
  0.6167331365201336  0.7027305154827898  0.4299914626586962
  0.9486140056909378  0.7845071530690459  0.2227679572538523
  0.7732867629576731  0.6215239688030177  0.3214815810521564
  0.2900999148269775  0.6231256524957974  0.3230947872676038
  0.3783361784484979  0.7009260262221241  0.1232319192966371
  0.2003518877971510  0.2830806639916971  0.2236087672616792
  0.6980768083963340  0.5449836489973030  0.2196825454379838
  0.2037209286144366  0.7933309403442605  0.2237215517688612
  0.4525013692042437  0.0214878808537276  0.2196141090398258
  0.6953648052596693  0.0443960994010928  0.2150349748315356
  0.7833519953359807  0.1236903097849963  0.3180502720765336
  0.9473627950014926  0.2818009131522941  0.2193494934024730
  0.7861465093868040  0.8655069593547473  0.0328982176429376
  0.0473861798624891  0.8581905024633727  0.0329319703460185
  0.0420867785278310  0.6182740012309272  0.0318280557918716
  0.6197692592795238  0.2175362750493633  0.1263861509276300
  0.3694697028263249  0.9508201484137808  0.1245756823623706
  0.0216225413025555  0.3770712260388114  0.0357612077785409
  0.8645824067407537  0.2094064956143817  0.1253883406632986
  0.9474676338738114  0.5360349687204630  0.2263456335635581
  0.5328631257069011  0.6226019064961773  0.3257552187417632
  0.2895138013565601  0.1136090567956732  0.0366547843598529
  0.5551832695903560  0.6089040168995280  0.0383978435623466
  0.2917937182313824  0.3740976970092842  0.0367254612675397
  0.6174161907979661  0.9381015335618689  0.1261540077702306
  0.7001543420695161  0.7839784569305602  0.2219098190926629
  0.6227647601425796  0.4498443274655346  0.1255731657731818
  0.2898510871861265  0.8662261715914484  0.3209441394498030
  0.2901517154865829  0.8732863111304811  0.0337755995990134
  0.6195628232468503  0.7073991738631848  0.1261727320884564
  0.2078346302760944  0.0300867898091681  0.2259256713192886
  0.5352764940831878  0.3749147254932985  0.0326743742583025
  0.3722521595052199  0.2022908174520957  0.1294258653528075
  0.1229235887559746  0.6985455736333408  0.1287181677706692
  0.5313024909012455  0.8630297329211489  0.3218312699578617
  0.7899772484213954  0.1170960621349730  0.0314174369710342
  0.5379561145757622  0.8614403896004750  0.0322625757580271
  0.2028431473406859  0.5353928298315187  0.2236599601126209
  0.8685049104148116  0.9547591079064986  0.1241029289701097
  0.7017617849807681  0.2877787180094401  0.2215980982279315
  0.4478374627529010  0.2898401131430504  0.2218006715730221
  0.8680129833580966  0.4472772441512799  0.1260391813259403
  0.1241440997370130  0.2014392039882947  0.1259278520261201
  0.7826206174549671  0.6107211108138292  0.0355707552294924
  0.2815861339912541  0.6143097687580471  0.0371974683869825
  0.3758206159636107  0.4449449064311705  0.1255575864038428
  0.7796317888301562  0.3747066782708773  0.3208249041344198
  0.7826694520314412  0.3705413494644980  0.0367363739411040
  0.9491213222788549  0.0383235766857713  0.2209607382914885
  0.4531884298144173  0.7842640168999532  0.2267102726122117
 
  0.00000000E+00  0.00000000E+00  0.00000000E+00
  0.00000000E+00  0.00000000E+00  0.00000000E+00
  0.00000000E+00  0.00000000E+00  0.00000000E+00
  0.00000000E+00  0.00000000E+00  0.00000000E+00
  0.00000000E+00  0.00000000E+00  0.00000000E+00
  0.00000000E+00  0.00000000E+00  0.00000000E+00
  0.00000000E+00  0.00000000E+00  0.00000000E+00
  0.00000000E+00  0.00000000E+00  0.00000000E+00
  0.00000000E+00  0.00000000E+00  0.00000000E+00
  0.00000000E+00  0.00000000E+00  0.00000000E+00
  0.00000000E+00  0.00000000E+00  0.00000000E+00
  0.00000000E+00  0.00000000E+00  0.00000000E+00
  0.00000000E+00  0.00000000E+00  0.00000000E+00
  0.00000000E+00  0.00000000E+00  0.00000000E+00
  0.00000000E+00  0.00000000E+00  0.00000000E+00
  0.00000000E+00  0.00000000E+00  0.00000000E+00
  0.00000000E+00  0.00000000E+00  0.00000000E+00
  0.00000000E+00  0.00000000E+00  0.00000000E+00
  0.00000000E+00  0.00000000E+00  0.00000000E+00
  0.00000000E+00  0.00000000E+00  0.00000000E+00
  0.00000000E+00  0.00000000E+00  0.00000000E+00
  0.00000000E+00  0.00000000E+00  0.00000000E+00
  0.00000000E+00  0.00000000E+00  0.00000000E+00
  0.00000000E+00  0.00000000E+00  0.00000000E+00
  0.00000000E+00  0.00000000E+00  0.00000000E+00
  0.00000000E+00  0.00000000E+00  0.00000000E+00
  0.00000000E+00  0.00000000E+00  0.00000000E+00
  0.00000000E+00  0.00000000E+00  0.00000000E+00
  0.00000000E+00  0.00000000E+00  0.00000000E+00
  0.00000000E+00  0.00000000E+00  0.00000000E+00
  0.00000000E+00  0.00000000E+00  0.00000000E+00
  0.00000000E+00  0.00000000E+00  0.00000000E+00
  0.00000000E+00  0.00000000E+00  0.00000000E+00
  0.00000000E+00  0.00000000E+00  0.00000000E+00
  0.00000000E+00  0.00000000E+00  0.00000000E+00
  0.00000000E+00  0.00000000E+00  0.00000000E+00
  0.00000000E+00  0.00000000E+00  0.00000000E+00
  0.00000000E+00  0.00000000E+00  0.00000000E+00
  0.00000000E+00  0.00000000E+00  0.00000000E+00
  0.00000000E+00  0.00000000E+00  0.00000000E+00
  0.00000000E+00  0.00000000E+00  0.00000000E+00
  0.00000000E+00  0.00000000E+00  0.00000000E+00
  0.00000000E+00  0.00000000E+00  0.00000000E+00
  0.00000000E+00  0.00000000E+00  0.00000000E+00
  0.00000000E+00  0.00000000E+00  0.00000000E+00
  0.00000000E+00  0.00000000E+00  0.00000000E+00
  0.00000000E+00  0.00000000E+00  0.00000000E+00
  0.00000000E+00  0.00000000E+00  0.00000000E+00
  0.00000000E+00  0.00000000E+00  0.00000000E+00
  0.00000000E+00  0.00000000E+00  0.00000000E+00
  0.00000000E+00  0.00000000E+00  0.00000000E+00
  0.00000000E+00  0.00000000E+00  0.00000000E+00
  0.00000000E+00  0.00000000E+00  0.00000000E+00
  0.00000000E+00  0.00000000E+00  0.00000000E+00
  0.00000000E+00  0.00000000E+00  0.00000000E+00
  0.00000000E+00  0.00000000E+00  0.00000000E+00
  0.00000000E+00  0.00000000E+00  0.00000000E+00
  0.00000000E+00  0.00000000E+00  0.00000000E+00
  0.00000000E+00  0.00000000E+00  0.00000000E+00
  0.00000000E+00  0.00000000E+00  0.00000000E+00
  0.00000000E+00  0.00000000E+00  0.00000000E+00
  0.00000000E+00  0.00000000E+00  0.00000000E+00
  0.00000000E+00  0.00000000E+00  0.00000000E+00
  0.00000000E+00  0.00000000E+00  0.00000000E+00
  0.00000000E+00  0.00000000E+00  0.00000000E+00
  0.00000000E+00  0.00000000E+00  0.00000000E+00
  0.00000000E+00  0.00000000E+00  0.00000000E+00
  0.00000000E+00  0.00000000E+00  0.00000000E+00
  0.00000000E+00  0.00000000E+00  0.00000000E+00
  0.00000000E+00  0.00000000E+00  0.00000000E+00
  0.00000000E+00  0.00000000E+00  0.00000000E+00
  0.00000000E+00  0.00000000E+00  0.00000000E+00
  0.00000000E+00  0.00000000E+00  0.00000000E+00
  0.00000000E+00  0.00000000E+00  0.00000000E+00
  0.00000000E+00  0.00000000E+00  0.00000000E+00
  0.00000000E+00  0.00000000E+00  0.00000000E+00
  0.00000000E+00  0.00000000E+00  0.00000000E+00
  0.00000000E+00  0.00000000E+00  0.00000000E+00
  0.00000000E+00  0.00000000E+00  0.00000000E+00
  0.00000000E+00  0.00000000E+00  0.00000000E+00
