11.06                                   
   1.00000000000000     
    11.0600004195999997    0.0000000000000000    0.0000000000000000
     5.5300002097999998    9.5782413293000008    0.0000000000000000
     0.0000000000000000    0.0000000000000000   22.0000000000000000
   Pt   Fe   Co   Cu   Ni   H 
    32    13    10    13    12     1
Selective dynamics
Direct
  0.7877051665216334  0.8814223616400110  0.3107776327125940   T   T   T
  0.0425299120202129  0.8806928018382808  0.3063108536388726   T   T   T
  0.2801935853923361  0.3774895408873946  0.3149665086305020   T   T   T
  0.8764263864366413  0.9602690247652713  0.4150788965724519   T   T   T
  0.1174520176127148  0.4670442167455587  0.4171081450983368   T   T   T
  0.1307042658952961  0.9563795020776219  0.4106468486873203   T   T   T
  0.8769325994951864  0.4564815797053915  0.4177520600093554   T   T   T
  0.3745630722987943  0.9594837285726083  0.4140831682129020   T   T   T
  0.8740708455456719  0.2142134761681313  0.4146044172986517   T   T   T
  0.1292484988389051  0.2130479078665991  0.4145213333853203   T   T   T
  0.6257748482791798  0.9574487078407196  0.4144108100944640   T   T   T
  0.8747906864742314  0.7134693003156167  0.4164886992498980   T   T   T
  0.3781997414858427  0.2048971808888126  0.4161024887996967   T   T   T
  0.3778972286722718  0.7109036839625338  0.4149737166675325   T   T   T
  0.6269297135696763  0.4628938836185986  0.4154846592655541   T   T   T
  0.1251957724594754  0.7093053090771022  0.4153243752689976   T   T   T
  0.6232329776585308  0.2099905131010283  0.4131622994751214   T   T   T
  0.5480462445638264  0.3771011177041962  0.3145001542571912   T   T   T
  0.5342784273192650  0.1256960488133280  0.3108696146454349   T   T   T
  0.5517907035671499  0.1237414160858918  0.0522380319954578   F   F   F
  0.1166403069998836  0.4478305367060003  0.1269050428999989   F   F   F
  0.0467452395162963  0.1351379678605726  0.3115787136259454   T   T   T
  0.0318634206626527  0.1321532286754916  0.0391436539772698   F   F   F
  0.1322902336844294  0.9574246671199944  0.1357499056681846   F   F   F
  0.3739360420605784  0.4603549207798336  0.4165558107020755   T   T   T
  0.4583302334576800  0.5505736616875794  0.2196229883772745   F   F   F
  0.6232871855908221  0.7103528130950207  0.4158919233302115   T   T   T
  0.9547310550067607  0.7790527017495137  0.2153140473863644   F   F   F
  0.7996621052953927  0.6241823471036708  0.3166337996944517   T   T   T
  0.2879904694489061  0.6304225477892050  0.3136793852608010   T   T   T
  0.1973038588486915  0.2737670855169014  0.2256946547136351   F   F   F
  0.7039440396782410  0.5536854017216086  0.2217252195590902   F   F   F
  0.0414540150300072  0.6330465864378229  0.3180152004042565   T   T   T
  0.7942667551087155  0.8599541229665348  0.0553496235818187   F   F   F
  0.0504003372988748  0.8628103274157084  0.0484924134499991   F   F   F
  0.0458392209568999  0.6458845459631064  0.0531647909772701   F   F   F
  0.6274855346454800  0.2338042520028765  0.1340709094590906   F   F   F
  0.3830354864116359  0.9521874920608795  0.1342572065863621   F   F   F
  0.0358295628671196  0.3837160805389027  0.3206205699878665   T   T   T
  0.0087826589867177  0.3763095084036081  0.0435932914227237   F   F   F
  0.8682239942029994  0.2198895605560978  0.1320713060818193   F   F   F
  0.9576874342144350  0.5384780366853548  0.2234689155318179   F   F   F
  0.3008665262422378  0.1143861104624860  0.3188852102304022   T   T   T
  0.5419005903859684  0.6269048409358748  0.3198303577310091   T   T   T
  0.2911501622544819  0.1122415390507356  0.0494274354681821   F   F   F
  0.5501148902293878  0.6255569737600126  0.0488264706954524   F   F   F
  0.3085145004429961  0.3835596446251230  0.0505624604727259   F   F   F
  0.6245341976642393  0.9433204780778155  0.1374917836227283   F   F   F
  0.7074861992497574  0.7893700323013846  0.2208180135954549   F   F   F
  0.8571241580711089  0.6893234213678454  0.1325387087818157   F   F   F
  0.6277723694778672  0.4599996828668367  0.1303307695227289   F   F   F
  0.2985541925378212  0.8741383502872360  0.3170561547100552   T   T   T
  0.3052197422800944  0.8770331463671681  0.0463809798954529   F   F   F
  0.6182318874293458  0.7191778517970846  0.1308751241863604   F   F   F
  0.2334164172359081  0.0220315628041732  0.2282939212136341   F   F   F
  0.5422124353392448  0.3830619451481425  0.0408535510409109   F   F   F
  0.3754399652261782  0.2045931610018457  0.1386052775909121   F   F   F
  0.1558647781371434  0.7043630098421261  0.1400214925545455   F   F   F
  0.7020978323690130  0.0565474128996044  0.2199129117681835   F   F   F
  0.7953256671681876  0.1292670754059503  0.3145203061198814   T   T   T
  0.5417653866168808  0.8709892359607819  0.3162623860756443   T   T   T
  0.7897065490966995  0.1294421438106141  0.0418056654227286   F   F   F
  0.5441043329389430  0.8775533958188859  0.0423234264090908   F   F   F
  0.2084291012041177  0.5357474079612743  0.2217233592454519   F   F   F
  0.9462833612890051  0.3039384823176903  0.2236098237454556   F   F   F
  0.8690563302489380  0.9770500116104230  0.1342576139045448   F   F   F
  0.7171106193404952  0.2969876676105727  0.2257845762136341   F   F   F
  0.4563820814942758  0.2976701910170334  0.2219475371090880   F   F   F
  0.8693529692367647  0.4543744225557163  0.1311308469772712   F   F   F
  0.1220030719522569  0.2018087212614930  0.1324010706863632   F   F   F
  0.7829019622226241  0.6202837550590488  0.0451729013090940   F   F   F
  0.2978972113281415  0.6241254916404273  0.0494225953454546   F   F   F
  0.3860904589733565  0.7174036682893004  0.1312306088954571   F   F   F
  0.3884240254738813  0.4538593918908589  0.1321607624818171   F   F   F
  0.7918568524239015  0.3868419875159497  0.3183254078820195   T   T   T
  0.7861851256519614  0.3745117542013503  0.0441340194818167   F   F   F
  0.9513544597592940  0.0659301343836702  0.2213817175772732   F   F   F
  0.4635982856892369  0.7951887142894378  0.2264081887863654   F   F   F
  0.2310835121427104  0.7963463801926807  0.2255315960954576   F   F   F
  0.4612243376662803  0.0241249826618102  0.2248505513227244   F   F   F
  0.8720316357712706  0.0866483917233910  0.4628729825051303   T   T   T
 
  0.00000000E+00  0.00000000E+00  0.00000000E+00
  0.00000000E+00  0.00000000E+00  0.00000000E+00
  0.00000000E+00  0.00000000E+00  0.00000000E+00
  0.00000000E+00  0.00000000E+00  0.00000000E+00
  0.00000000E+00  0.00000000E+00  0.00000000E+00
  0.00000000E+00  0.00000000E+00  0.00000000E+00
  0.00000000E+00  0.00000000E+00  0.00000000E+00
  0.00000000E+00  0.00000000E+00  0.00000000E+00
  0.00000000E+00  0.00000000E+00  0.00000000E+00
  0.00000000E+00  0.00000000E+00  0.00000000E+00
  0.00000000E+00  0.00000000E+00  0.00000000E+00
  0.00000000E+00  0.00000000E+00  0.00000000E+00
  0.00000000E+00  0.00000000E+00  0.00000000E+00
  0.00000000E+00  0.00000000E+00  0.00000000E+00
  0.00000000E+00  0.00000000E+00  0.00000000E+00
  0.00000000E+00  0.00000000E+00  0.00000000E+00
  0.00000000E+00  0.00000000E+00  0.00000000E+00
  0.00000000E+00  0.00000000E+00  0.00000000E+00
  0.00000000E+00  0.00000000E+00  0.00000000E+00
  0.00000000E+00  0.00000000E+00  0.00000000E+00
  0.00000000E+00  0.00000000E+00  0.00000000E+00
  0.00000000E+00  0.00000000E+00  0.00000000E+00
  0.00000000E+00  0.00000000E+00  0.00000000E+00
  0.00000000E+00  0.00000000E+00  0.00000000E+00
  0.00000000E+00  0.00000000E+00  0.00000000E+00
  0.00000000E+00  0.00000000E+00  0.00000000E+00
  0.00000000E+00  0.00000000E+00  0.00000000E+00
  0.00000000E+00  0.00000000E+00  0.00000000E+00
  0.00000000E+00  0.00000000E+00  0.00000000E+00
  0.00000000E+00  0.00000000E+00  0.00000000E+00
  0.00000000E+00  0.00000000E+00  0.00000000E+00
  0.00000000E+00  0.00000000E+00  0.00000000E+00
  0.00000000E+00  0.00000000E+00  0.00000000E+00
  0.00000000E+00  0.00000000E+00  0.00000000E+00
  0.00000000E+00  0.00000000E+00  0.00000000E+00
  0.00000000E+00  0.00000000E+00  0.00000000E+00
  0.00000000E+00  0.00000000E+00  0.00000000E+00
  0.00000000E+00  0.00000000E+00  0.00000000E+00
  0.00000000E+00  0.00000000E+00  0.00000000E+00
  0.00000000E+00  0.00000000E+00  0.00000000E+00
  0.00000000E+00  0.00000000E+00  0.00000000E+00
  0.00000000E+00  0.00000000E+00  0.00000000E+00
  0.00000000E+00  0.00000000E+00  0.00000000E+00
  0.00000000E+00  0.00000000E+00  0.00000000E+00
  0.00000000E+00  0.00000000E+00  0.00000000E+00
  0.00000000E+00  0.00000000E+00  0.00000000E+00
  0.00000000E+00  0.00000000E+00  0.00000000E+00
  0.00000000E+00  0.00000000E+00  0.00000000E+00
  0.00000000E+00  0.00000000E+00  0.00000000E+00
  0.00000000E+00  0.00000000E+00  0.00000000E+00
  0.00000000E+00  0.00000000E+00  0.00000000E+00
  0.00000000E+00  0.00000000E+00  0.00000000E+00
  0.00000000E+00  0.00000000E+00  0.00000000E+00
  0.00000000E+00  0.00000000E+00  0.00000000E+00
  0.00000000E+00  0.00000000E+00  0.00000000E+00
  0.00000000E+00  0.00000000E+00  0.00000000E+00
  0.00000000E+00  0.00000000E+00  0.00000000E+00
  0.00000000E+00  0.00000000E+00  0.00000000E+00
  0.00000000E+00  0.00000000E+00  0.00000000E+00
  0.00000000E+00  0.00000000E+00  0.00000000E+00
  0.00000000E+00  0.00000000E+00  0.00000000E+00
  0.00000000E+00  0.00000000E+00  0.00000000E+00
  0.00000000E+00  0.00000000E+00  0.00000000E+00
  0.00000000E+00  0.00000000E+00  0.00000000E+00
  0.00000000E+00  0.00000000E+00  0.00000000E+00
  0.00000000E+00  0.00000000E+00  0.00000000E+00
  0.00000000E+00  0.00000000E+00  0.00000000E+00
  0.00000000E+00  0.00000000E+00  0.00000000E+00
  0.00000000E+00  0.00000000E+00  0.00000000E+00
  0.00000000E+00  0.00000000E+00  0.00000000E+00
  0.00000000E+00  0.00000000E+00  0.00000000E+00
  0.00000000E+00  0.00000000E+00  0.00000000E+00
  0.00000000E+00  0.00000000E+00  0.00000000E+00
  0.00000000E+00  0.00000000E+00  0.00000000E+00
  0.00000000E+00  0.00000000E+00  0.00000000E+00
  0.00000000E+00  0.00000000E+00  0.00000000E+00
  0.00000000E+00  0.00000000E+00  0.00000000E+00
  0.00000000E+00  0.00000000E+00  0.00000000E+00
  0.00000000E+00  0.00000000E+00  0.00000000E+00
  0.00000000E+00  0.00000000E+00  0.00000000E+00
  0.00000000E+00  0.00000000E+00  0.00000000E+00
