11.26                                   
   1.00000000000000     
    11.2227001190000006    0.0000000000000000    0.0000000000000000
     5.6113500595000003    9.7191434021000003    0.0000000000000000
     0.0000000000000000    0.0000000000000000   22.0000000000000000
   Pt   Fe   Co   Ni   H 
    32    16    15    17     1
Selective dynamics
Direct
  0.7829060907463088  0.8697560615654183  0.3049230113045454   F   F   F
  0.0291985854846217  0.8699801140266175  0.2992284879272731   F   F   F
  0.2808625923287806  0.3595670034403327  0.3107592559181853   F   F   F
  0.8730435331864612  0.9568946552934392  0.4056964170409074   F   F   F
  0.1118608615501628  0.4580919218393262  0.4100139564727243   F   F   F
  0.1261866258544160  0.9464168097686994  0.4016649034272746   F   F   F
  0.8698595832459262  0.4451727385219115  0.4116110839636349   F   F   F
  0.3701658962256644  0.9545721330128103  0.4162571129045460   F   F   F
  0.8714428524817350  0.2008470319800253  0.4053138197863646   F   F   F
  0.1232646802621744  0.2045975387882777  0.4106949106454536   F   F   F
  0.6205421750806295  0.9552483436857173  0.4156282773136368   F   F   F
  0.8753138740959869  0.7016941344364227  0.4134281363772701   F   F   F
  0.3706395181238520  0.2014949468053828  0.4152343194272703   F   F   F
  0.3689126340252145  0.7005988974736965  0.4047850748454564   F   F   F
  0.6196572236452269  0.4532280209023583  0.4081644186636382   F   F   F
  0.1152511811723400  0.7035203828994412  0.4072390704681794   F   F   F
  0.6239869511906591  0.2029550018341908  0.4110641042090890   F   F   F
  0.5389587255840240  0.3640486196175985  0.3072901384954534   F   F   F
  0.5375412538616544  0.1114353428478054  0.3131947642727297   F   F   F
  0.5375076487171242  0.1169073699596268  0.0531220763272700   F   F   F
  0.1060159474172693  0.4196903701841279  0.1184692797545424   F   F   F
  0.0489189744501601  0.1252159461745421  0.3063559333045447   F   F   F
  0.0245780338318511  0.1097680969569268  0.0430117810681807   F   F   F
  0.1169260853325511  0.9524257744669029  0.1460113291272762   F   F   F
  0.3697276689400937  0.4515316760890471  0.4088231931590940   F   F   F
  0.4507798513754153  0.5618345619141820  0.2220556187454577   F   F   F
  0.6155165495674737  0.7005381098738468  0.4146023516181785   F   F   F
  0.9486300860078885  0.7563834836835071  0.2065586565000004   F   F   F
  0.7953914639458119  0.6170380271788360  0.3132616335227283   F   F   F
  0.2673384180751910  0.6135807217240412  0.3057556605363629   F   F   F
  0.1912446586299481  0.2608944894209628  0.2240584526999996   F   F   F
  0.6997735942738998  0.5388438066433352  0.2217140734181839   F   F   F
  0.0328054772669404  0.6209539349934872  0.3107850803409065   F   F   F
  0.7908872107797080  0.8845713640095454  0.0590154774772742   F   F   F
  0.0431671302096959  0.8645701532281578  0.0570202552818202   F   F   F
  0.0421493158309616  0.6575489276883317  0.0841343607909124   F   F   F
  0.6242636984160299  0.2112047253214158  0.1379027481681803   F   F   F
  0.3765739752082027  0.9544076052521007  0.1361219543000018   F   F   F
  0.0277813338678428  0.3738500718813285  0.3170138945045480   F   F   F
  0.9829997705121372  0.3538927260355891  0.0428426668363642   F   F   F
  0.8658294734042045  0.2056136287451196  0.1348809598181830   F   F   F
  0.9483266235558290  0.5214631290762668  0.2168444122590927   F   F   F
  0.3005040785719260  0.1073558228881097  0.3199107815818181   F   F   F
  0.5406590082778493  0.6286939417706066  0.3177476601227269   F   F   F
  0.2847406250402855  0.1106504997001707  0.0527892048909067   F   F   F
  0.5347394070459259  0.3670804573712871  0.0500104259863647   F   F   F
  0.3590277917235056  0.2092973479906135  0.1353676211954564   F   F   F
  0.1795593542393732  0.6914409692265622  0.1579673919181843   F   F   F
  0.5212171467669151  0.6245286249288711  0.0521856766999989   F   F   F
  0.3151048399582024  0.3737904076315033  0.0562376898136350   F   F   F
  0.6422458949394994  0.9322045230593474  0.1407324841545474   F   F   F
  0.6833132047318244  0.7857360920973733  0.2233291051454529   F   F   F
  0.8295527645934442  0.6808095917866908  0.1286545647090875   F   F   F
  0.6085657030912799  0.4600908835169406  0.1304246345863618   F   F   F
  0.3220765043753104  0.8744919659240296  0.3185209073954525   F   F   F
  0.2872073272789635  0.8837786298990196  0.0528704927409080   F   F   F
  0.6032048154532390  0.7172003307507424  0.1319261668636358   F   F   F
  0.2439096344744200  0.0149315574630435  0.2294272331681810   F   F   F
  0.6976537942059124  0.0566164128909890  0.2220366322545431   F   F   F
  0.7752024827623103  0.1230445992021885  0.3128752571000035   F   F   F
  0.5393185557486433  0.8687464872856623  0.3182941053772694   F   F   F
  0.7741422871075372  0.1303526627281002  0.0510236411136376   F   F   F
  0.5357933357529490  0.8795584207814997  0.0554483186181827   F   F   F
  0.1814597450678335  0.5098063442843568  0.2171239293045488   F   F   F
  0.9349898804628438  0.3002506672727421  0.2236450676863626   F   F   F
  0.8637922699629215  0.9774248099011871  0.1391290802590888   F   F   F
  0.7103683752906917  0.2901671282358720  0.2217569249545477   F   F   F
  0.4576128818555389  0.2618566628464478  0.2213986287363667   F   F   F
  0.8581290774886767  0.4368715359506439  0.1313162540363635   F   F   F
  0.1100745241357401  0.1878027748418276  0.1340892703363608   F   F   F
  0.7528583583272024  0.5916146920990570  0.0478918017818160   F   F   F
  0.3015051675749518  0.6160063720539810  0.0630200835090875   F   F   F
  0.3734188990724761  0.7330867030792589  0.1363920454954552   F   F   F
  0.3936768738036420  0.4342038804354047  0.1433610557727292   F   F   F
  0.7851659610769062  0.3688078874857936  0.3141118851499982   F   F   F
  0.7669098264074421  0.3554787377304791  0.0472348453454572   F   F   F
  0.9208175640634693  0.0708794067542158  0.2271199104590877   F   F   F
  0.4649313895279050  0.7934409722809264  0.2269696011863616   F   F   F
  0.2368418030058024  0.8043381320118073  0.2355582224818207   F   F   F
  0.4569958715132501  0.0304147897165663  0.2234290062500008   F   F   F
  0.7033027042305804  0.7912332664973790  0.4510188745454536   T   T   T
 
  0.00000000E+00  0.00000000E+00  0.00000000E+00
  0.00000000E+00  0.00000000E+00  0.00000000E+00
  0.00000000E+00  0.00000000E+00  0.00000000E+00
  0.00000000E+00  0.00000000E+00  0.00000000E+00
  0.00000000E+00  0.00000000E+00  0.00000000E+00
  0.00000000E+00  0.00000000E+00  0.00000000E+00
  0.00000000E+00  0.00000000E+00  0.00000000E+00
  0.00000000E+00  0.00000000E+00  0.00000000E+00
  0.00000000E+00  0.00000000E+00  0.00000000E+00
  0.00000000E+00  0.00000000E+00  0.00000000E+00
  0.00000000E+00  0.00000000E+00  0.00000000E+00
  0.00000000E+00  0.00000000E+00  0.00000000E+00
  0.00000000E+00  0.00000000E+00  0.00000000E+00
  0.00000000E+00  0.00000000E+00  0.00000000E+00
  0.00000000E+00  0.00000000E+00  0.00000000E+00
  0.00000000E+00  0.00000000E+00  0.00000000E+00
  0.00000000E+00  0.00000000E+00  0.00000000E+00
  0.00000000E+00  0.00000000E+00  0.00000000E+00
  0.00000000E+00  0.00000000E+00  0.00000000E+00
  0.00000000E+00  0.00000000E+00  0.00000000E+00
  0.00000000E+00  0.00000000E+00  0.00000000E+00
  0.00000000E+00  0.00000000E+00  0.00000000E+00
  0.00000000E+00  0.00000000E+00  0.00000000E+00
  0.00000000E+00  0.00000000E+00  0.00000000E+00
  0.00000000E+00  0.00000000E+00  0.00000000E+00
  0.00000000E+00  0.00000000E+00  0.00000000E+00
  0.00000000E+00  0.00000000E+00  0.00000000E+00
  0.00000000E+00  0.00000000E+00  0.00000000E+00
  0.00000000E+00  0.00000000E+00  0.00000000E+00
  0.00000000E+00  0.00000000E+00  0.00000000E+00
  0.00000000E+00  0.00000000E+00  0.00000000E+00
  0.00000000E+00  0.00000000E+00  0.00000000E+00
  0.00000000E+00  0.00000000E+00  0.00000000E+00
  0.00000000E+00  0.00000000E+00  0.00000000E+00
  0.00000000E+00  0.00000000E+00  0.00000000E+00
  0.00000000E+00  0.00000000E+00  0.00000000E+00
  0.00000000E+00  0.00000000E+00  0.00000000E+00
  0.00000000E+00  0.00000000E+00  0.00000000E+00
  0.00000000E+00  0.00000000E+00  0.00000000E+00
  0.00000000E+00  0.00000000E+00  0.00000000E+00
  0.00000000E+00  0.00000000E+00  0.00000000E+00
  0.00000000E+00  0.00000000E+00  0.00000000E+00
  0.00000000E+00  0.00000000E+00  0.00000000E+00
  0.00000000E+00  0.00000000E+00  0.00000000E+00
  0.00000000E+00  0.00000000E+00  0.00000000E+00
  0.00000000E+00  0.00000000E+00  0.00000000E+00
  0.00000000E+00  0.00000000E+00  0.00000000E+00
  0.00000000E+00  0.00000000E+00  0.00000000E+00
  0.00000000E+00  0.00000000E+00  0.00000000E+00
  0.00000000E+00  0.00000000E+00  0.00000000E+00
  0.00000000E+00  0.00000000E+00  0.00000000E+00
  0.00000000E+00  0.00000000E+00  0.00000000E+00
  0.00000000E+00  0.00000000E+00  0.00000000E+00
  0.00000000E+00  0.00000000E+00  0.00000000E+00
  0.00000000E+00  0.00000000E+00  0.00000000E+00
  0.00000000E+00  0.00000000E+00  0.00000000E+00
  0.00000000E+00  0.00000000E+00  0.00000000E+00
  0.00000000E+00  0.00000000E+00  0.00000000E+00
  0.00000000E+00  0.00000000E+00  0.00000000E+00
  0.00000000E+00  0.00000000E+00  0.00000000E+00
  0.00000000E+00  0.00000000E+00  0.00000000E+00
  0.00000000E+00  0.00000000E+00  0.00000000E+00
  0.00000000E+00  0.00000000E+00  0.00000000E+00
  0.00000000E+00  0.00000000E+00  0.00000000E+00
  0.00000000E+00  0.00000000E+00  0.00000000E+00
  0.00000000E+00  0.00000000E+00  0.00000000E+00
  0.00000000E+00  0.00000000E+00  0.00000000E+00
  0.00000000E+00  0.00000000E+00  0.00000000E+00
  0.00000000E+00  0.00000000E+00  0.00000000E+00
  0.00000000E+00  0.00000000E+00  0.00000000E+00
  0.00000000E+00  0.00000000E+00  0.00000000E+00
  0.00000000E+00  0.00000000E+00  0.00000000E+00
  0.00000000E+00  0.00000000E+00  0.00000000E+00
  0.00000000E+00  0.00000000E+00  0.00000000E+00
  0.00000000E+00  0.00000000E+00  0.00000000E+00
  0.00000000E+00  0.00000000E+00  0.00000000E+00
  0.00000000E+00  0.00000000E+00  0.00000000E+00
  0.00000000E+00  0.00000000E+00  0.00000000E+00
  0.00000000E+00  0.00000000E+00  0.00000000E+00
  0.00000000E+00  0.00000000E+00  0.00000000E+00
  0.00000000E+00  0.00000000E+00  0.00000000E+00
