10.56                                   
   1.00000000000000     
    10.5600004195999997    0.0000000000000000    0.0000000000000000
     5.2800002097999998    9.1452286273999999    0.0000000000000000
     0.0000000000000000    0.0000000000000000   22.0000000000000000
   Pt   Fe   Co   Cu   Ni   C 
    32    13    10    13    12     1
Selective dynamics
Direct
  0.7859525543670299  0.8788618185752024  0.3172910989296839   T   T   T
  0.0422903151514495  0.8812810853429207  0.3156795707968040   T   T   T
  0.2787114244980881  0.3810303539456207  0.3194774187394304   T   T   T
  0.8740058783577732  0.9609198751882602  0.4252314674433129   T   T   T
  0.1211861882156535  0.4617798993796761  0.4268813248082536   T   T   T
  0.1192470893990606  0.9635070958348978  0.4200726687980915   T   T   T
  0.8750203333970588  0.4580289123241572  0.4273362087340792   T   T   T
  0.3702957063372170  0.9664385316343959  0.4320752187978387   T   T   T
  0.8740520517508144  0.2106808378035838  0.4201578167646405   T   T   T
  0.1239709231477683  0.2112220123380329  0.4228368021101163   T   T   T
  0.6265425770270222  0.9630216980651040  0.4224146672733206   T   T   T
  0.8745732937202848  0.7104422112572458  0.4268041161114621   T   T   T
  0.3732871851299140  0.2099424516611163  0.4253103327733962   T   T   T
  0.3712078127088562  0.7074264091250859  0.4304795582886681   T   T   T
  0.6282259762420419  0.4552749692920414  0.4194757286888076   T   T   T
  0.1226912640931735  0.7104135302090419  0.4272730857373624   T   T   T
  0.6236218396576432  0.2103426127696734  0.4221852540892354   T   T   T
  0.5465934647423399  0.3745554887352623  0.3166086771503520   T   T   T
  0.5323440239111549  0.1237603246736668  0.3148119178638185   T   T   T
  0.5470002567308043  0.1235332521939583  0.0399417999772709   F   F   F
  0.1208089481832886  0.4601783015999317  0.1280394984818187   F   F   F
  0.0427512183187440  0.1367648822800968  0.3139561161026319   T   T   T
  0.0424414900706935  0.1302099981111695  0.0329802953681835   F   F   F
  0.1304832192178935  0.9579853651937356  0.1318324513636355   F   F   F
  0.3737230087587172  0.4589224599734147  0.4273549497850870   T   T   T
  0.4545409546936767  0.5457192756283078  0.2188518203000029   F   F   F
  0.6300423523937606  0.7068340665781114  0.4315277557623020   T   T   T
  0.9557150112739734  0.7901309279847197  0.2210448635636340   F   F   F
  0.7909354327363409  0.6235769748980546  0.3205587543808657   T   T   T
  0.2930762344824939  0.6319589585000908  0.3202709105239044   T   T   T
  0.2026302282546482  0.2805717472619946  0.2254649220954548   F   F   F
  0.7064516142104935  0.5493905794598390  0.2207507679909071   F   F   F
  0.0395386469874227  0.6307966819551878  0.3254267378417333   T   T   T
  0.7973180911857654  0.8616265572072663  0.0420760910772700   F   F   F
  0.0560985910286504  0.8657185943694543  0.0377408024136372   F   F   F
  0.0464128728304587  0.6281990126400245  0.0369911384090926   F   F   F
  0.6273755757405439  0.2222416784103771  0.1287505962318178   F   F   F
  0.3821141315863983  0.9550040284758836  0.1298830475227248   F   F   F
  0.0348908960005737  0.3835825918959543  0.3243241468531283   T   T   T
  0.0311405267529068  0.3816759960316460  0.0375046088681827   F   F   F
  0.8722404389362310  0.2153943248393162  0.1282949969590916   F   F   F
  0.9547121146441953  0.5451880757537140  0.2238905465227248   F   F   F
  0.2955264707115871  0.1141649090708542  0.3226342253347454   T   T   T
  0.5394164865920272  0.6298775323016498  0.3217327353275531   T   T   T
  0.2952537777580275  0.1193869715983666  0.0394092290045478   F   F   F
  0.5482511333458362  0.6253176515966246  0.0436557828227251   F   F   F
  0.2955313611175683  0.3794825008859988  0.0388921565772762   F   F   F
  0.6254873592728032  0.9499576153264400  0.1320861515409106   F   F   F
  0.7063418941412323  0.7943482474494772  0.2201040810409083   F   F   F
  0.8657230808985474  0.7055915708183349  0.1288086150363625   F   F   F
  0.6261967559749806  0.4601083651744915  0.1271035316954539   F   F   F
  0.2970078316420456  0.8771689534518919  0.3177868677552643   T   T   T
  0.3058183792080129  0.8681273535812224  0.0402965921590877   F   F   F
  0.6267113460374674  0.7146527937769136  0.1282718373772695   F   F   F
  0.2238985663333324  0.0282395707665799  0.2273103066590920   F   F   F
  0.5426930146679965  0.3810225683434538  0.0346170130500028   F   F   F
  0.3782499856614123  0.2053095451189151  0.1325912588909119   F   F   F
  0.1361840205679030  0.7049738332493618  0.1317829863318210   F   F   F
  0.7048694108137141  0.0502839582186283  0.2203633218772723   F   F   F
  0.7923166255031273  0.1290138704018611  0.3170413410703025   T   T   T
  0.5359347365903401  0.8729667513737248  0.3194122218090440   T   T   T
  0.7965506180334998  0.1231154660613569  0.0345346489227296   F   F   F
  0.5461463374708515  0.8704875427114658  0.0358963983818157   F   F   F
  0.2072223479328272  0.5428206522718000  0.2241705479818208   F   F   F
  0.9515132437870619  0.2967218890154157  0.2212922910363631   F   F   F
  0.8718576990639662  0.9638570180181532  0.1289765751136329   F   F   F
  0.7142109858849466  0.2900443576175675  0.2233456813409092   F   F   F
  0.4576441344000983  0.2914717494993724  0.2208305283954530   F   F   F
  0.8758100826533664  0.4565068959120069  0.1279466825136382   F   F   F
  0.1276916528005785  0.2069238958586865  0.1287633622272750   F   F   F
  0.7922909547091166  0.6217683887271619  0.0402482253999992   F   F   F
  0.2978485906287958  0.6254074402977565  0.0420896375636346   F   F   F
  0.3856750788553356  0.7114654717221427  0.1289187271227306   F   F   F
  0.3820764845414715  0.4516090485180371  0.1264952625681843   F   F   F
  0.7929185370555181  0.3791196301170083  0.3193605885045690   T   T   T
  0.7909247997136220  0.3772595911558838  0.0394562840909103   F   F   F
  0.9555996101362965  0.0529344377623957  0.2214324969818193   F   F   F
  0.4575573979143996  0.7971559299412050  0.2244088666727251   F   F   F
  0.2131500369795702  0.7976872161559072  0.2245790410590942   F   F   F
  0.4623985897484246  0.0302163017414401  0.2220026953545471   F   F   F
  0.4575956934368273  0.7910394812518525  0.4826284675478702   T   T   T
 
  0.00000000E+00  0.00000000E+00  0.00000000E+00
  0.00000000E+00  0.00000000E+00  0.00000000E+00
  0.00000000E+00  0.00000000E+00  0.00000000E+00
  0.00000000E+00  0.00000000E+00  0.00000000E+00
  0.00000000E+00  0.00000000E+00  0.00000000E+00
  0.00000000E+00  0.00000000E+00  0.00000000E+00
  0.00000000E+00  0.00000000E+00  0.00000000E+00
  0.00000000E+00  0.00000000E+00  0.00000000E+00
  0.00000000E+00  0.00000000E+00  0.00000000E+00
  0.00000000E+00  0.00000000E+00  0.00000000E+00
  0.00000000E+00  0.00000000E+00  0.00000000E+00
  0.00000000E+00  0.00000000E+00  0.00000000E+00
  0.00000000E+00  0.00000000E+00  0.00000000E+00
  0.00000000E+00  0.00000000E+00  0.00000000E+00
  0.00000000E+00  0.00000000E+00  0.00000000E+00
  0.00000000E+00  0.00000000E+00  0.00000000E+00
  0.00000000E+00  0.00000000E+00  0.00000000E+00
  0.00000000E+00  0.00000000E+00  0.00000000E+00
  0.00000000E+00  0.00000000E+00  0.00000000E+00
  0.00000000E+00  0.00000000E+00  0.00000000E+00
  0.00000000E+00  0.00000000E+00  0.00000000E+00
  0.00000000E+00  0.00000000E+00  0.00000000E+00
  0.00000000E+00  0.00000000E+00  0.00000000E+00
  0.00000000E+00  0.00000000E+00  0.00000000E+00
  0.00000000E+00  0.00000000E+00  0.00000000E+00
  0.00000000E+00  0.00000000E+00  0.00000000E+00
  0.00000000E+00  0.00000000E+00  0.00000000E+00
  0.00000000E+00  0.00000000E+00  0.00000000E+00
  0.00000000E+00  0.00000000E+00  0.00000000E+00
  0.00000000E+00  0.00000000E+00  0.00000000E+00
  0.00000000E+00  0.00000000E+00  0.00000000E+00
  0.00000000E+00  0.00000000E+00  0.00000000E+00
  0.00000000E+00  0.00000000E+00  0.00000000E+00
  0.00000000E+00  0.00000000E+00  0.00000000E+00
  0.00000000E+00  0.00000000E+00  0.00000000E+00
  0.00000000E+00  0.00000000E+00  0.00000000E+00
  0.00000000E+00  0.00000000E+00  0.00000000E+00
  0.00000000E+00  0.00000000E+00  0.00000000E+00
  0.00000000E+00  0.00000000E+00  0.00000000E+00
  0.00000000E+00  0.00000000E+00  0.00000000E+00
  0.00000000E+00  0.00000000E+00  0.00000000E+00
  0.00000000E+00  0.00000000E+00  0.00000000E+00
  0.00000000E+00  0.00000000E+00  0.00000000E+00
  0.00000000E+00  0.00000000E+00  0.00000000E+00
  0.00000000E+00  0.00000000E+00  0.00000000E+00
  0.00000000E+00  0.00000000E+00  0.00000000E+00
  0.00000000E+00  0.00000000E+00  0.00000000E+00
  0.00000000E+00  0.00000000E+00  0.00000000E+00
  0.00000000E+00  0.00000000E+00  0.00000000E+00
  0.00000000E+00  0.00000000E+00  0.00000000E+00
  0.00000000E+00  0.00000000E+00  0.00000000E+00
  0.00000000E+00  0.00000000E+00  0.00000000E+00
  0.00000000E+00  0.00000000E+00  0.00000000E+00
  0.00000000E+00  0.00000000E+00  0.00000000E+00
  0.00000000E+00  0.00000000E+00  0.00000000E+00
  0.00000000E+00  0.00000000E+00  0.00000000E+00
  0.00000000E+00  0.00000000E+00  0.00000000E+00
  0.00000000E+00  0.00000000E+00  0.00000000E+00
  0.00000000E+00  0.00000000E+00  0.00000000E+00
  0.00000000E+00  0.00000000E+00  0.00000000E+00
  0.00000000E+00  0.00000000E+00  0.00000000E+00
  0.00000000E+00  0.00000000E+00  0.00000000E+00
  0.00000000E+00  0.00000000E+00  0.00000000E+00
  0.00000000E+00  0.00000000E+00  0.00000000E+00
  0.00000000E+00  0.00000000E+00  0.00000000E+00
  0.00000000E+00  0.00000000E+00  0.00000000E+00
  0.00000000E+00  0.00000000E+00  0.00000000E+00
  0.00000000E+00  0.00000000E+00  0.00000000E+00
  0.00000000E+00  0.00000000E+00  0.00000000E+00
  0.00000000E+00  0.00000000E+00  0.00000000E+00
  0.00000000E+00  0.00000000E+00  0.00000000E+00
  0.00000000E+00  0.00000000E+00  0.00000000E+00
  0.00000000E+00  0.00000000E+00  0.00000000E+00
  0.00000000E+00  0.00000000E+00  0.00000000E+00
  0.00000000E+00  0.00000000E+00  0.00000000E+00
  0.00000000E+00  0.00000000E+00  0.00000000E+00
  0.00000000E+00  0.00000000E+00  0.00000000E+00
  0.00000000E+00  0.00000000E+00  0.00000000E+00
  0.00000000E+00  0.00000000E+00  0.00000000E+00
  0.00000000E+00  0.00000000E+00  0.00000000E+00
  0.00000000E+00  0.00000000E+00  0.00000000E+00
