11.26-high                              
   1.00000000000000     
    11.2227001190000006    0.0000000000000000    0.0000000000000000
     5.6113500595000003    9.7191434021000003    0.0000000000000000
     0.0000000000000000    0.0000000000000000   22.0000000000000000
   Pt   Fe   Co   Cu   Ni   H 
    42    10     9    10     9     1
Selective dynamics
Direct
  0.7757828984675385  0.8707326754187709  0.3147569409003740   T   T   T
  0.0362910393304869  0.8696638465639105  0.3153706325223918   T   T   T
  0.0365865317690683  0.6159495133963873  0.3124715771135506   T   T   T
  0.0281924501688611  0.3710239087369840  0.3185472545807805   T   T   T
  0.2902730827420958  0.1051414395515209  0.3188812419626988   T   T   T
  0.2867272062278666  0.3675715863644713  0.3171167872615319   T   T   T
  0.8603830678044062  0.6885467750536591  0.1253156462500016   F   F   F
  0.8680433088411907  0.9527086402675827  0.4167208448948765   T   T   T
  0.1151538698185743  0.4560596778288734  0.4195527104498153   T   T   T
  0.1190179483746022  0.9504246938422969  0.4195654161463571   T   T   T
  0.8696565272059205  0.4481094251532939  0.4208351024760110   T   T   T
  0.3756513619035754  0.9483567949143775  0.4207939028202009   T   T   T
  0.8673476354362425  0.2034757853292857  0.4157372467006467   T   T   T
  0.1177470495895030  0.2046210920839885  0.4202798889787644   T   T   T
  0.6199894783419155  0.9457953483253837  0.4176749787581387   T   T   T
  0.8678077392035225  0.7046471468629787  0.4195573279044685   T   T   T
  0.3722514932533103  0.1974747820292090  0.4198265759420317   T   T   T
  0.3748303142810258  0.6976284103616615  0.4204311271091810   T   T   T
  0.6225510983371108  0.4563827774746485  0.4192681222225599   T   T   T
  0.1158295242730061  0.6998253490881235  0.4181234950924186   T   T   T
  0.6191249668379152  0.2055357774566854  0.4168288052853723   T   T   T
  0.5411245327112817  0.3760473377675594  0.3176046399613568   T   T   T
  0.5312721131996722  0.1216478747130736  0.3164875217834939   T   T   T
  0.5442019006228733  0.1201914845034153  0.0504434484681795   F   F   F
  0.1142405163196329  0.4386075722968457  0.1234050769590880   F   F   F
  0.0402135914965024  0.1136332460064629  0.3159868090112460   T   T   T
  0.0243253264458687  0.1323668837134377  0.0369015360272726   F   F   F
  0.1152134814866699  0.9584880216488187  0.1297927210409071   F   F   F
  0.3660856839613128  0.4522846902171690  0.4195116673576214   T   T   T
  0.4557435896217541  0.5396524899372039  0.2213525035863668   F   F   F
  0.6214989924385839  0.6989124991662133  0.4205120165576657   T   T   T
  0.9410139446931112  0.7905655189880036  0.2179142421045484   F   F   F
  0.7801680945528333  0.6228241523382417  0.3179286165684893   T   T   T
  0.2903801527411021  0.6218453325514874  0.3181183876729806   T   T   T
  0.3768126017729969  0.7090882968360077  0.1223311202272725   F   F   F
  0.1980441227920124  0.2771285427188985  0.2229871410590931   F   F   F
  0.6939540916241498  0.5484393539196333  0.2221168207409079   F   F   F
  0.2107683324880867  0.7918799648369301  0.2236131327318205   F   F   F
  0.4557418254902501  0.0164923155846566  0.2206410286909062   F   F   F
  0.6862860921415930  0.0468873908889478  0.2147227927181845   F   F   F
  0.7844282902487922  0.1214012399870031  0.3130947726806586   T   T   T
  0.9434930917077722  0.2857924509272962  0.2215890749863618   F   F   F
  0.7867857272291658  0.8821680795189693  0.0488070628545429   F   F   F
  0.0358623303006738  0.8507121037450176  0.0465431883590881   F   F   F
  0.0481229290084855  0.6302962965930092  0.0439644148227245   F   F   F
  0.6209494190243205  0.2256219229594052  0.1323573148454571   F   F   F
  0.3709421952700751  0.9443970530280268  0.1313032974227255   F   F   F
  0.9936099268667462  0.3719789771410120  0.0447934889863646   F   F   F
  0.8631642533399813  0.2122395306827443  0.1308509258409103   F   F   F
  0.9463297029474802  0.5321554723827262  0.2240115982681843   F   F   F
  0.5365241703159773  0.6198920101716195  0.3233118007249122   T   T   T
  0.2942496729187951  0.1094640347697862  0.0502411027818184   F   F   F
  0.5652370767781534  0.5964757606259212  0.0467385234636382   F   F   F
  0.3035354273760760  0.3837712234901360  0.0499963786545479   F   F   F
  0.6277578011989107  0.9236075517169979  0.1303932065727267   F   F   F
  0.6989168430191057  0.7800059105684127  0.2225661840045490   F   F   F
  0.6222664635151602  0.4485233850092314  0.1314846070363629   F   F   F
  0.2876549915844885  0.8670542101216603  0.3206441765315000   T   T   T
  0.2792035565351938  0.9034454831176575  0.0410961363181812   F   F   F
  0.6143503406269275  0.7101301790452794  0.1300746441954530   F   F   F
  0.2165096431681519  0.0224182010065732  0.2257764199409067   F   F   F
  0.5361482883496507  0.3764256073029557  0.0401335441090893   F   F   F
  0.3702343115390931  0.2105192803882190  0.1365703187000022   F   F   F
  0.1326484000424202  0.6896726429153901  0.1374850507500014   F   F   F
  0.5343818276987504  0.8578630126161292  0.3190720993299963   T   T   T
  0.7841087454784841  0.1257091519028322  0.0403582594772729   F   F   F
  0.5329206264284778  0.8661142146417120  0.0408235199181846   F   F   F
  0.2106888119822869  0.5229193255242919  0.2214641484136379   F   F   F
  0.8693192534775847  0.9736660002521731  0.1323443272500029   F   F   F
  0.7050605033612314  0.2914274399005166  0.2245332657363619   F   F   F
  0.4533111685043210  0.2946908516218798  0.2235118708227262   F   F   F
  0.8556987306866617  0.4497894098625466  0.1313302277681814   F   F   F
  0.1273694145296886  0.1919494531582799  0.1306615633954564   F   F   F
  0.7725967245697234  0.5982079950527108  0.0420667780727300   F   F   F
  0.2752698282785886  0.6127388501452984  0.0463555859136378   F   F   F
  0.3852170713906986  0.4500455704928612  0.1318572647090903   F   F   F
  0.7774365325437098  0.3798240642987806  0.3197409899277903   T   T   T
  0.7757829137447203  0.3655372166679172  0.0436342522727244   F   F   F
  0.9538253258237788  0.0428579507644642  0.2228099709181848   F   F   F
  0.4551161067616150  0.7837870906559559  0.2271676499863631   F   F   F
  0.2856171985331548  0.8695807436913386  0.4589866840434511   T   T   T
 
  0.00000000E+00  0.00000000E+00  0.00000000E+00
  0.00000000E+00  0.00000000E+00  0.00000000E+00
  0.00000000E+00  0.00000000E+00  0.00000000E+00
  0.00000000E+00  0.00000000E+00  0.00000000E+00
  0.00000000E+00  0.00000000E+00  0.00000000E+00
  0.00000000E+00  0.00000000E+00  0.00000000E+00
  0.00000000E+00  0.00000000E+00  0.00000000E+00
  0.00000000E+00  0.00000000E+00  0.00000000E+00
  0.00000000E+00  0.00000000E+00  0.00000000E+00
  0.00000000E+00  0.00000000E+00  0.00000000E+00
  0.00000000E+00  0.00000000E+00  0.00000000E+00
  0.00000000E+00  0.00000000E+00  0.00000000E+00
  0.00000000E+00  0.00000000E+00  0.00000000E+00
  0.00000000E+00  0.00000000E+00  0.00000000E+00
  0.00000000E+00  0.00000000E+00  0.00000000E+00
  0.00000000E+00  0.00000000E+00  0.00000000E+00
  0.00000000E+00  0.00000000E+00  0.00000000E+00
  0.00000000E+00  0.00000000E+00  0.00000000E+00
  0.00000000E+00  0.00000000E+00  0.00000000E+00
  0.00000000E+00  0.00000000E+00  0.00000000E+00
  0.00000000E+00  0.00000000E+00  0.00000000E+00
  0.00000000E+00  0.00000000E+00  0.00000000E+00
  0.00000000E+00  0.00000000E+00  0.00000000E+00
  0.00000000E+00  0.00000000E+00  0.00000000E+00
  0.00000000E+00  0.00000000E+00  0.00000000E+00
  0.00000000E+00  0.00000000E+00  0.00000000E+00
  0.00000000E+00  0.00000000E+00  0.00000000E+00
  0.00000000E+00  0.00000000E+00  0.00000000E+00
  0.00000000E+00  0.00000000E+00  0.00000000E+00
  0.00000000E+00  0.00000000E+00  0.00000000E+00
  0.00000000E+00  0.00000000E+00  0.00000000E+00
  0.00000000E+00  0.00000000E+00  0.00000000E+00
  0.00000000E+00  0.00000000E+00  0.00000000E+00
  0.00000000E+00  0.00000000E+00  0.00000000E+00
  0.00000000E+00  0.00000000E+00  0.00000000E+00
  0.00000000E+00  0.00000000E+00  0.00000000E+00
  0.00000000E+00  0.00000000E+00  0.00000000E+00
  0.00000000E+00  0.00000000E+00  0.00000000E+00
  0.00000000E+00  0.00000000E+00  0.00000000E+00
  0.00000000E+00  0.00000000E+00  0.00000000E+00
  0.00000000E+00  0.00000000E+00  0.00000000E+00
  0.00000000E+00  0.00000000E+00  0.00000000E+00
  0.00000000E+00  0.00000000E+00  0.00000000E+00
  0.00000000E+00  0.00000000E+00  0.00000000E+00
  0.00000000E+00  0.00000000E+00  0.00000000E+00
  0.00000000E+00  0.00000000E+00  0.00000000E+00
  0.00000000E+00  0.00000000E+00  0.00000000E+00
  0.00000000E+00  0.00000000E+00  0.00000000E+00
  0.00000000E+00  0.00000000E+00  0.00000000E+00
  0.00000000E+00  0.00000000E+00  0.00000000E+00
  0.00000000E+00  0.00000000E+00  0.00000000E+00
  0.00000000E+00  0.00000000E+00  0.00000000E+00
  0.00000000E+00  0.00000000E+00  0.00000000E+00
  0.00000000E+00  0.00000000E+00  0.00000000E+00
  0.00000000E+00  0.00000000E+00  0.00000000E+00
  0.00000000E+00  0.00000000E+00  0.00000000E+00
  0.00000000E+00  0.00000000E+00  0.00000000E+00
  0.00000000E+00  0.00000000E+00  0.00000000E+00
  0.00000000E+00  0.00000000E+00  0.00000000E+00
  0.00000000E+00  0.00000000E+00  0.00000000E+00
  0.00000000E+00  0.00000000E+00  0.00000000E+00
  0.00000000E+00  0.00000000E+00  0.00000000E+00
  0.00000000E+00  0.00000000E+00  0.00000000E+00
  0.00000000E+00  0.00000000E+00  0.00000000E+00
  0.00000000E+00  0.00000000E+00  0.00000000E+00
  0.00000000E+00  0.00000000E+00  0.00000000E+00
  0.00000000E+00  0.00000000E+00  0.00000000E+00
  0.00000000E+00  0.00000000E+00  0.00000000E+00
  0.00000000E+00  0.00000000E+00  0.00000000E+00
  0.00000000E+00  0.00000000E+00  0.00000000E+00
  0.00000000E+00  0.00000000E+00  0.00000000E+00
  0.00000000E+00  0.00000000E+00  0.00000000E+00
  0.00000000E+00  0.00000000E+00  0.00000000E+00
  0.00000000E+00  0.00000000E+00  0.00000000E+00
  0.00000000E+00  0.00000000E+00  0.00000000E+00
  0.00000000E+00  0.00000000E+00  0.00000000E+00
  0.00000000E+00  0.00000000E+00  0.00000000E+00
  0.00000000E+00  0.00000000E+00  0.00000000E+00
  0.00000000E+00  0.00000000E+00  0.00000000E+00
  0.00000000E+00  0.00000000E+00  0.00000000E+00
  0.00000000E+00  0.00000000E+00  0.00000000E+00
