10.86-high                              
   1.00000000000000     
    10.8599996566999994    0.0000000000000000    0.0000000000000000
     5.4299998282999997    9.4050355878000005    0.0000000000000000
     0.0000000000000000    0.0000000000000000   22.0000000000000000
   Pt   Fe   Co   Cu   Ni
    42    10     9    10     9
Direct
  0.7763676639027420  0.8690121757890276  0.3196988171988755
  0.0379867740346142  0.8690852201456943  0.3207500779019276
  0.0340984789913491  0.6169662406614416  0.3208615277186815
  0.0272259098739871  0.3695702244950092  0.3218828023725971
  0.2888607589401833  0.1071593748824167  0.3211073013582362
  0.2860192250624587  0.3695508142909423  0.3208706671459171
  0.8650392694509060  0.7014699303441558  0.1253302387760961
  0.8681331755053876  0.9515311753439915  0.4246203462561969
  0.1166492774675979  0.4533653142305388  0.4275529930816588
  0.1202339282766450  0.9518463215431230  0.4242972448136129
  0.8673252741880159  0.4512739736873188  0.4269589023242612
  0.3701279760584656  0.9486258475946160  0.4243998228486969
  0.8671272086319501  0.2032492047445572  0.4226867259827780
  0.1177715596720054  0.2018194316911819  0.4270761236448454
  0.6185361860430166  0.9498613159164043  0.4253227892455720
  0.8667226734230896  0.7029496846228468  0.4280137128019728
  0.3696642834186917  0.1994846792662915  0.4262828655905885
  0.3703659666593961  0.7041543753730829  0.4244676810093317
  0.6199523779795547  0.4547368008916349  0.4242371864297421
  0.1182459572159732  0.7017760239810872  0.4279569691532563
  0.6177260478944189  0.2035103396806332  0.4237081344845680
  0.5394688787981382  0.3746498288973541  0.3195623172772132
  0.5331659951095000  0.1189900693985451  0.3190845904793727
  0.5402152247611081  0.1183471173035719  0.0415336930335114
  0.1201189916834603  0.4469803920624175  0.1261395706707141
  0.0358116611663923  0.1157229495161683  0.3177556467495271
  0.0306057946042179  0.1350106262415285  0.0321636216593998
  0.1138199232999106  0.9583191309487057  0.1263125025635830
  0.3673903749261661  0.4534772867076991  0.4264533754487124
  0.4546171175154233  0.5329213830030038  0.2202655230488263
  0.6171121109373333  0.7018647259385643  0.4270038204921641
  0.9478926651747310  0.7856961859255097  0.2226913913369858
  0.7738132365979316  0.6218201019520226  0.3206645866462258
  0.2910331624412937  0.6218756057011106  0.3209272947577119
  0.3796531075034667  0.7026211357547204  0.1231363438931323
  0.1998862705885259  0.2806703676003272  0.2237997831932279
  0.6972588276626915  0.5455196827187107  0.2203855812445886
  0.2054879918135925  0.7928087924329339  0.2232203136165906
  0.4532926010998221  0.0193037210351519  0.2204810442382437
  0.6932159143972257  0.0450866158750124  0.2154922026065903
  0.7835178467796750  0.1232392039127678  0.3167892482132134
  0.9459702356785079  0.2822826140748651  0.2200788590826081
  0.7784890952473666  0.8708642161630309  0.0370837077536840
  0.0459687780293869  0.8494232838048391  0.0354898608855619
  0.0406588733743508  0.6193257515199798  0.0346741881594807
  0.6188322834960336  0.2204642370513439  0.1285099630460651
  0.3703102112893861  0.9491369398020774  0.1268858484686989
  0.0156370104400369  0.3782386741167186  0.0386491860220517
  0.8640907146472883  0.2096028092836037  0.1270101701668928
  0.9466280366887891  0.5355907090561541  0.2263231251798296
  0.5341176224013081  0.6205656819154749  0.3243866845213405
  0.2887690081765877  0.1127001789624728  0.0409705604470905
  0.5616827014528510  0.6069412607124206  0.0413738580377653
  0.2913239354616317  0.3777829525462618  0.0389564037422720
  0.6212105900610403  0.9340341403468709  0.1281919362414260
  0.6998574656275329  0.7825872916548461  0.2228650954440820
  0.6231303154511781  0.4500278888805829  0.1272597847011137
  0.2883791312133129  0.8664232776436587  0.3207975533275216
  0.2904451319681891  0.8824826235439169  0.0363061046260731
  0.6209689545534379  0.7075598902929751  0.1276614555492077
  0.2090044229547867  0.0286005356650633  0.2254362592236242
  0.5362367272170434  0.3773941606636867  0.0356932714007985
  0.3707433668240152  0.2032607220111739  0.1318434688005283
  0.1247574843486383  0.6950244527701600  0.1312474822726456
  0.5317184709109551  0.8615132996892090  0.3213089985033162
  0.7852815335035326  0.1225596890296893  0.0350366362592299
  0.5386943184941267  0.8627609851703250  0.0352441246164451
  0.2039453531387835  0.5341967295653943  0.2233469013848788
  0.8677431636765724  0.9573182018892863  0.1263369030839046
  0.7025849785647091  0.2881845583289698  0.2222698504701777
  0.4479715205939284  0.2908592543266798  0.2222001248792476
  0.8675116948352409  0.4485469475444979  0.1280438017454306
  0.1244962080765819  0.2002355402090401  0.1277442364920442
  0.7825561306270880  0.6106410331466555  0.0379954753444590
  0.2800794474328134  0.6138066533331358  0.0401944367109844
  0.3755375609821325  0.4456640360062882  0.1271391229408867
  0.7789903073051810  0.3754503461767236  0.3205099179236517
  0.7827329320638864  0.3722212659316848  0.0391452407456503
  0.9508074965387761  0.0377506315515715  0.2214340603692292
  0.4537679641019528  0.7839745495168334  0.2270600061211654
 
  0.00000000E+00  0.00000000E+00  0.00000000E+00
  0.00000000E+00  0.00000000E+00  0.00000000E+00
  0.00000000E+00  0.00000000E+00  0.00000000E+00
  0.00000000E+00  0.00000000E+00  0.00000000E+00
  0.00000000E+00  0.00000000E+00  0.00000000E+00
  0.00000000E+00  0.00000000E+00  0.00000000E+00
  0.00000000E+00  0.00000000E+00  0.00000000E+00
  0.00000000E+00  0.00000000E+00  0.00000000E+00
  0.00000000E+00  0.00000000E+00  0.00000000E+00
  0.00000000E+00  0.00000000E+00  0.00000000E+00
  0.00000000E+00  0.00000000E+00  0.00000000E+00
  0.00000000E+00  0.00000000E+00  0.00000000E+00
  0.00000000E+00  0.00000000E+00  0.00000000E+00
  0.00000000E+00  0.00000000E+00  0.00000000E+00
  0.00000000E+00  0.00000000E+00  0.00000000E+00
  0.00000000E+00  0.00000000E+00  0.00000000E+00
  0.00000000E+00  0.00000000E+00  0.00000000E+00
  0.00000000E+00  0.00000000E+00  0.00000000E+00
  0.00000000E+00  0.00000000E+00  0.00000000E+00
  0.00000000E+00  0.00000000E+00  0.00000000E+00
  0.00000000E+00  0.00000000E+00  0.00000000E+00
  0.00000000E+00  0.00000000E+00  0.00000000E+00
  0.00000000E+00  0.00000000E+00  0.00000000E+00
  0.00000000E+00  0.00000000E+00  0.00000000E+00
  0.00000000E+00  0.00000000E+00  0.00000000E+00
  0.00000000E+00  0.00000000E+00  0.00000000E+00
  0.00000000E+00  0.00000000E+00  0.00000000E+00
  0.00000000E+00  0.00000000E+00  0.00000000E+00
  0.00000000E+00  0.00000000E+00  0.00000000E+00
  0.00000000E+00  0.00000000E+00  0.00000000E+00
  0.00000000E+00  0.00000000E+00  0.00000000E+00
  0.00000000E+00  0.00000000E+00  0.00000000E+00
  0.00000000E+00  0.00000000E+00  0.00000000E+00
  0.00000000E+00  0.00000000E+00  0.00000000E+00
  0.00000000E+00  0.00000000E+00  0.00000000E+00
  0.00000000E+00  0.00000000E+00  0.00000000E+00
  0.00000000E+00  0.00000000E+00  0.00000000E+00
  0.00000000E+00  0.00000000E+00  0.00000000E+00
  0.00000000E+00  0.00000000E+00  0.00000000E+00
  0.00000000E+00  0.00000000E+00  0.00000000E+00
  0.00000000E+00  0.00000000E+00  0.00000000E+00
  0.00000000E+00  0.00000000E+00  0.00000000E+00
  0.00000000E+00  0.00000000E+00  0.00000000E+00
  0.00000000E+00  0.00000000E+00  0.00000000E+00
  0.00000000E+00  0.00000000E+00  0.00000000E+00
  0.00000000E+00  0.00000000E+00  0.00000000E+00
  0.00000000E+00  0.00000000E+00  0.00000000E+00
  0.00000000E+00  0.00000000E+00  0.00000000E+00
  0.00000000E+00  0.00000000E+00  0.00000000E+00
  0.00000000E+00  0.00000000E+00  0.00000000E+00
  0.00000000E+00  0.00000000E+00  0.00000000E+00
  0.00000000E+00  0.00000000E+00  0.00000000E+00
  0.00000000E+00  0.00000000E+00  0.00000000E+00
  0.00000000E+00  0.00000000E+00  0.00000000E+00
  0.00000000E+00  0.00000000E+00  0.00000000E+00
  0.00000000E+00  0.00000000E+00  0.00000000E+00
  0.00000000E+00  0.00000000E+00  0.00000000E+00
  0.00000000E+00  0.00000000E+00  0.00000000E+00
  0.00000000E+00  0.00000000E+00  0.00000000E+00
  0.00000000E+00  0.00000000E+00  0.00000000E+00
  0.00000000E+00  0.00000000E+00  0.00000000E+00
  0.00000000E+00  0.00000000E+00  0.00000000E+00
  0.00000000E+00  0.00000000E+00  0.00000000E+00
  0.00000000E+00  0.00000000E+00  0.00000000E+00
  0.00000000E+00  0.00000000E+00  0.00000000E+00
  0.00000000E+00  0.00000000E+00  0.00000000E+00
  0.00000000E+00  0.00000000E+00  0.00000000E+00
  0.00000000E+00  0.00000000E+00  0.00000000E+00
  0.00000000E+00  0.00000000E+00  0.00000000E+00
  0.00000000E+00  0.00000000E+00  0.00000000E+00
  0.00000000E+00  0.00000000E+00  0.00000000E+00
  0.00000000E+00  0.00000000E+00  0.00000000E+00
  0.00000000E+00  0.00000000E+00  0.00000000E+00
  0.00000000E+00  0.00000000E+00  0.00000000E+00
  0.00000000E+00  0.00000000E+00  0.00000000E+00
  0.00000000E+00  0.00000000E+00  0.00000000E+00
  0.00000000E+00  0.00000000E+00  0.00000000E+00
  0.00000000E+00  0.00000000E+00  0.00000000E+00
  0.00000000E+00  0.00000000E+00  0.00000000E+00
  0.00000000E+00  0.00000000E+00  0.00000000E+00
