10.86                                   
   1.00000000000000     
    10.8599996566999994    0.0000000000000000    0.0000000000000000
     5.4299998282999997    9.4050355878000005    0.0000000000000000
     0.0000000000000000    0.0000000000000000   22.0000000000000000
   Pt   Fe   Co   Cu   Ni   H 
    32    13    10    13    12     1
Selective dynamics
Direct
  0.7852692438311379  0.8795698007916926  0.3151402181136334   F   F   F
  0.0425646713938548  0.8819494482147192  0.3123638481136339   F   F   F
  0.2794394172505008  0.3804056560233491  0.3168287635454519   F   F   F
  0.8744834976905338  0.9627288313980742  0.4180878455090919   F   F   F
  0.1209685662069191  0.4655658188874767  0.4216599135227241   F   F   F
  0.1263134306408418  0.9580337280475604  0.4166825311500020   F   F   F
  0.8725702360267320  0.4637731853835874  0.4232497699909104   F   F   F
  0.3736817873912557  0.9602660330190815  0.4164026932499993   F   F   F
  0.8713058633237125  0.2088123713585404  0.4177220277818208   F   F   F
  0.1300713709801826  0.2097887386794639  0.4189953360500027   F   F   F
  0.6243795303386008  0.9600429911623678  0.4190295305636340   F   F   F
  0.8735162964140812  0.7121255040318957  0.4216144786545470   F   F   F
  0.3753853503838371  0.2082007378728079  0.4194548974409074   F   F   F
  0.3760374273282707  0.7130548671712944  0.4189679511045483   F   F   F
  0.6226178541631029  0.4637287470084104  0.4174983845590887   F   F   F
  0.1235818810905442  0.7110291874891530  0.4213290369909117   F   F   F
  0.6244512757363339  0.2099627113863889  0.4172733000863644   F   F   F
  0.5479853837679443  0.3757656626928991  0.3150720511727272   F   F   F
  0.5339141372199805  0.1252413748043608  0.3128103222772722   F   F   F
  0.5483883292934877  0.1233734725262678  0.0461674633454550   F   F   F
  0.1189763218456719  0.4584087287125840  0.1298649037999979   F   F   F
  0.0447368443847154  0.1360272395204447  0.3132899748681837   F   F   F
  0.0406657298294206  0.1314986331475723  0.0367327973454579   F   F   F
  0.1309549378495518  0.9578912708619924  0.1339264883772699   F   F   F
  0.3739295555328113  0.4604779954599891  0.4207783830045457   F   F   F
  0.4556522333904454  0.5480667654342994  0.2186221383272695   F   F   F
  0.6211841505706133  0.7125055388937156  0.4192819968681789   F   F   F
  0.9546323180157117  0.7862445906948139  0.2204777234045423   F   F   F
  0.7953100799325270  0.6231241729379633  0.3181139973227260   F   F   F
  0.2906647808771297  0.6308488669938015  0.3163979317999974   F   F   F
  0.2002708624331007  0.2770478458561030  0.2260251504045456   F   F   F
  0.7045829241556802  0.5516321129959252  0.2208851499954534   F   F   F
  0.0406749348410784  0.6320702778850986  0.3225527781136392   F   F   F
  0.7955110030430319  0.8609512276384805  0.0480385122272722   F   F   F
  0.0573949397823768  0.8629365884407534  0.0426982104681812   F   F   F
  0.0458753864337567  0.6317424305982726  0.0425419417454549   F   F   F
  0.6283988685906934  0.2264175371289738  0.1318427956090886   F   F   F
  0.3823587953945804  0.9533284287228625  0.1319694655727304   F   F   F
  0.0350833178265830  0.3835016951003070  0.3228651204090909   F   F   F
  0.0268079723616808  0.3797381930306329  0.0416316377136354   F   F   F
  0.8723791053676138  0.2158092365469457  0.1307545436727295   F   F   F
  0.9547024218507971  0.5436382700170128  0.2244670324363653   F   F   F
  0.2989026965017416  0.1143802155512788  0.3193548492090912   F   F   F
  0.5410386397209663  0.6278338183918777  0.3201139142318183   F   F   F
  0.2945049925961882  0.1170356248441848  0.0441488403727277   F   F   F
  0.5519685041016658  0.6240663073846946  0.0467109319272723   F   F   F
  0.2960777314503247  0.3827352514932940  0.0441011896590879   F   F   F
  0.6249515703976343  0.9461887287639286  0.1346385474090894   F   F   F
  0.7073007629469075  0.7919560005877955  0.2206980387772717   F   F   F
  0.8641642368870777  0.7014903972780502  0.1310198486954519   F   F   F
  0.6284097325721945  0.4565427356882950  0.1288810116500017   F   F   F
  0.2970712159634559  0.8741074845866734  0.3173813567545452   F   F   F
  0.3034084821940297  0.8750332447838289  0.0436180695045465   F   F   F
  0.6263955126564014  0.7168699604014037  0.1294389879545434   F   F   F
  0.2282460863355027  0.0251927252999806  0.2279743672272758   F   F   F
  0.5411956632024371  0.3786938250526219  0.0386404366090929   F   F   F
  0.3758860748220698  0.2062408198131820  0.1355179188181808   F   F   F
  0.1391045929531671  0.7049881574824539  0.1351065841363663   F   F   F
  0.7043988531711349  0.0514063915852887  0.2204906319818178   F   F   F
  0.7930992954049998  0.1289797252520302  0.3152950860909058   F   F   F
  0.5393062044337142  0.8722191610780357  0.3162096178636347   F   F   F
  0.7963472328275429  0.1231574992127094  0.0392939661590930   F   F   F
  0.5440945193985200  0.8759385405927063  0.0392459096681819   F   F   F
  0.2079024299005852  0.5431036366120594  0.2237859261272703   F   F   F
  0.9489325326236937  0.3007508570375990  0.2224478204318174   F   F   F
  0.8725112496294898  0.9655798376329443  0.1316447751227301   F   F   F
  0.7171476949159796  0.2914481447423398  0.2245606244909055   F   F   F
  0.4567330680043540  0.2945848388488770  0.2213046886454535   F   F   F
  0.8750294207410079  0.4572868458869976  0.1300096086727294   F   F   F
  0.1269801392207555  0.2054284542959337  0.1306704091090936   F   F   F
  0.7957063935882616  0.6202328764993581  0.0430280211045471   F   F   F
  0.2938692617776510  0.6266274624994352  0.0463221184909060   F   F   F
  0.3850310216699739  0.7148852913243218  0.1298736747000007   F   F   F
  0.3816718202388216  0.4522385150798698  0.1290563122090944   F   F   F
  0.7933623568903556  0.3813628570372032  0.3196569352181839   F   F   F
  0.7947937720711735  0.3739039784455045  0.0430364376636376   F   F   F
  0.9546170343474998  0.0559472075345013  0.2217931839272751   F   F   F
  0.4595337133946984  0.7957272121764092  0.2251697936636390   F   F   F
  0.2181471024034209  0.7973202649150295  0.2249219835909102   F   F   F
  0.4610829538139924  0.0274880027604922  0.2232129655818156   F   F   F
  0.9473799840755602  0.2995085205157579  0.4615482799090878   T   T   T
 
  0.00000000E+00  0.00000000E+00  0.00000000E+00
  0.00000000E+00  0.00000000E+00  0.00000000E+00
  0.00000000E+00  0.00000000E+00  0.00000000E+00
  0.00000000E+00  0.00000000E+00  0.00000000E+00
  0.00000000E+00  0.00000000E+00  0.00000000E+00
  0.00000000E+00  0.00000000E+00  0.00000000E+00
  0.00000000E+00  0.00000000E+00  0.00000000E+00
  0.00000000E+00  0.00000000E+00  0.00000000E+00
  0.00000000E+00  0.00000000E+00  0.00000000E+00
  0.00000000E+00  0.00000000E+00  0.00000000E+00
  0.00000000E+00  0.00000000E+00  0.00000000E+00
  0.00000000E+00  0.00000000E+00  0.00000000E+00
  0.00000000E+00  0.00000000E+00  0.00000000E+00
  0.00000000E+00  0.00000000E+00  0.00000000E+00
  0.00000000E+00  0.00000000E+00  0.00000000E+00
  0.00000000E+00  0.00000000E+00  0.00000000E+00
  0.00000000E+00  0.00000000E+00  0.00000000E+00
  0.00000000E+00  0.00000000E+00  0.00000000E+00
  0.00000000E+00  0.00000000E+00  0.00000000E+00
  0.00000000E+00  0.00000000E+00  0.00000000E+00
  0.00000000E+00  0.00000000E+00  0.00000000E+00
  0.00000000E+00  0.00000000E+00  0.00000000E+00
  0.00000000E+00  0.00000000E+00  0.00000000E+00
  0.00000000E+00  0.00000000E+00  0.00000000E+00
  0.00000000E+00  0.00000000E+00  0.00000000E+00
  0.00000000E+00  0.00000000E+00  0.00000000E+00
  0.00000000E+00  0.00000000E+00  0.00000000E+00
  0.00000000E+00  0.00000000E+00  0.00000000E+00
  0.00000000E+00  0.00000000E+00  0.00000000E+00
  0.00000000E+00  0.00000000E+00  0.00000000E+00
  0.00000000E+00  0.00000000E+00  0.00000000E+00
  0.00000000E+00  0.00000000E+00  0.00000000E+00
  0.00000000E+00  0.00000000E+00  0.00000000E+00
  0.00000000E+00  0.00000000E+00  0.00000000E+00
  0.00000000E+00  0.00000000E+00  0.00000000E+00
  0.00000000E+00  0.00000000E+00  0.00000000E+00
  0.00000000E+00  0.00000000E+00  0.00000000E+00
  0.00000000E+00  0.00000000E+00  0.00000000E+00
  0.00000000E+00  0.00000000E+00  0.00000000E+00
  0.00000000E+00  0.00000000E+00  0.00000000E+00
  0.00000000E+00  0.00000000E+00  0.00000000E+00
  0.00000000E+00  0.00000000E+00  0.00000000E+00
  0.00000000E+00  0.00000000E+00  0.00000000E+00
  0.00000000E+00  0.00000000E+00  0.00000000E+00
  0.00000000E+00  0.00000000E+00  0.00000000E+00
  0.00000000E+00  0.00000000E+00  0.00000000E+00
  0.00000000E+00  0.00000000E+00  0.00000000E+00
  0.00000000E+00  0.00000000E+00  0.00000000E+00
  0.00000000E+00  0.00000000E+00  0.00000000E+00
  0.00000000E+00  0.00000000E+00  0.00000000E+00
  0.00000000E+00  0.00000000E+00  0.00000000E+00
  0.00000000E+00  0.00000000E+00  0.00000000E+00
  0.00000000E+00  0.00000000E+00  0.00000000E+00
  0.00000000E+00  0.00000000E+00  0.00000000E+00
  0.00000000E+00  0.00000000E+00  0.00000000E+00
  0.00000000E+00  0.00000000E+00  0.00000000E+00
  0.00000000E+00  0.00000000E+00  0.00000000E+00
  0.00000000E+00  0.00000000E+00  0.00000000E+00
  0.00000000E+00  0.00000000E+00  0.00000000E+00
  0.00000000E+00  0.00000000E+00  0.00000000E+00
  0.00000000E+00  0.00000000E+00  0.00000000E+00
  0.00000000E+00  0.00000000E+00  0.00000000E+00
  0.00000000E+00  0.00000000E+00  0.00000000E+00
  0.00000000E+00  0.00000000E+00  0.00000000E+00
  0.00000000E+00  0.00000000E+00  0.00000000E+00
  0.00000000E+00  0.00000000E+00  0.00000000E+00
  0.00000000E+00  0.00000000E+00  0.00000000E+00
  0.00000000E+00  0.00000000E+00  0.00000000E+00
  0.00000000E+00  0.00000000E+00  0.00000000E+00
  0.00000000E+00  0.00000000E+00  0.00000000E+00
  0.00000000E+00  0.00000000E+00  0.00000000E+00
  0.00000000E+00  0.00000000E+00  0.00000000E+00
  0.00000000E+00  0.00000000E+00  0.00000000E+00
  0.00000000E+00  0.00000000E+00  0.00000000E+00
  0.00000000E+00  0.00000000E+00  0.00000000E+00
  0.00000000E+00  0.00000000E+00  0.00000000E+00
  0.00000000E+00  0.00000000E+00  0.00000000E+00
  0.00000000E+00  0.00000000E+00  0.00000000E+00
  0.00000000E+00  0.00000000E+00  0.00000000E+00
  0.00000000E+00  0.00000000E+00  0.00000000E+00
  0.00000000E+00  0.00000000E+00  0.00000000E+00
