11.26-high                              
   1.00000000000000     
    11.2227001190000006    0.0000000000000000    0.0000000000000000
     5.6113500595000003    9.7191434021000003    0.0000000000000000
     0.0000000000000000    0.0000000000000000   22.0000000000000000
   Pt   Fe   Co   Cu   Ni   H 
    42    10     9    10     9     1
Selective dynamics
Direct
  0.7759125368498184  0.8692958315399837  0.3151560041788026   T   T   T
  0.0356800597062103  0.8695012057116129  0.3148820642647983   T   T   T
  0.0358088787525246  0.6162029055893994  0.3129165923043435   T   T   T
  0.0272114490909926  0.3716258159021136  0.3193262769815130   T   T   T
  0.2898238141875339  0.1065527567510437  0.3183734785012143   T   T   T
  0.2872988117880763  0.3673798764412947  0.3168697195115510   T   T   T
  0.8603830678044062  0.6885467750536591  0.1253156462500016   F   F   F
  0.8693248395015153  0.9503144857832312  0.4164209753560398   T   T   T
  0.1220578325367001  0.4525130036690103  0.4189143187450631   T   T   T
  0.1223428477653436  0.9492364077589134  0.4169021904670639   T   T   T
  0.8681255865597217  0.4472238992362108  0.4230362154687826   T   T   T
  0.3706079927064643  0.9474566481370363  0.4186512608825348   T   T   T
  0.8655584384057652  0.2061732045911065  0.4154607028639011   T   T   T
  0.1205120489660110  0.1984695295140261  0.4200642839469043   T   T   T
  0.6172446757156096  0.9498057932873767  0.4177640795302108   T   T   T
  0.8668691290339446  0.7053329265429420  0.4212791858699346   T   T   T
  0.3711525454859397  0.1976861180856342  0.4198902637772088   T   T   T
  0.3720064038442616  0.7039548135822346  0.4180230360076663   T   T   T
  0.6200784837421756  0.4559439777180873  0.4191484046209689   T   T   T
  0.1189947259692334  0.7019310510507455  0.4185612103097179   T   T   T
  0.6195142999465888  0.2036069281845176  0.4169605338568257   T   T   T
  0.5413132328470402  0.3755380385257623  0.3175613761140881   T   T   T
  0.5316291428873083  0.1212082704322382  0.3162292616742773   T   T   T
  0.5442019006228733  0.1201914845034153  0.0504434484681795   F   F   F
  0.1142405163196329  0.4386075722968457  0.1234050769590880   F   F   F
  0.0391436931478346  0.1141184762135861  0.3156498007025174   T   T   T
  0.0243253264458687  0.1323668837134377  0.0369015360272726   F   F   F
  0.1152134814866699  0.9584880216488187  0.1297927210409071   F   F   F
  0.3671336248484776  0.4537274733395686  0.4195510974510486   T   T   T
  0.4557435896217541  0.5396524899372039  0.2213525035863668   F   F   F
  0.6109421938086720  0.7049927799928136  0.4194508960242390   T   T   T
  0.9410139446931112  0.7905655189880036  0.2179142421045484   F   F   F
  0.7801207394612593  0.6215911811062208  0.3187727658250386   T   T   T
  0.2892360622179562  0.6206149408400569  0.3175442802243488   T   T   T
  0.3768126017729969  0.7090882968360077  0.1223311202272725   F   F   F
  0.1980441227920124  0.2771285427188985  0.2229871410590931   F   F   F
  0.6939540916241498  0.5484393539196333  0.2221168207409079   F   F   F
  0.2107683324880867  0.7918799648369301  0.2236131327318205   F   F   F
  0.4557418254902501  0.0164923155846566  0.2206410286909062   F   F   F
  0.6862860921415930  0.0468873908889478  0.2147227927181845   F   F   F
  0.7842923542253669  0.1208203056315190  0.3134098085354209   T   T   T
  0.9434930917077722  0.2857924509272962  0.2215890749863618   F   F   F
  0.7867857272291658  0.8821680795189693  0.0488070628545429   F   F   F
  0.0358623303006738  0.8507121037450176  0.0465431883590881   F   F   F
  0.0481229290084855  0.6302962965930092  0.0439644148227245   F   F   F
  0.6209494190243205  0.2256219229594052  0.1323573148454571   F   F   F
  0.3709421952700751  0.9443970530280268  0.1313032974227255   F   F   F
  0.9936099268667462  0.3719789771410120  0.0447934889863646   F   F   F
  0.8631642533399813  0.2122395306827443  0.1308509258409103   F   F   F
  0.9463297029474802  0.5321554723827262  0.2240115982681843   F   F   F
  0.5354074735399407  0.6197426622838197  0.3227809861081239   T   T   T
  0.2942496729187951  0.1094640347697862  0.0502411027818184   F   F   F
  0.5652370767781534  0.5964757606259212  0.0467385234636382   F   F   F
  0.3035354273760760  0.3837712234901360  0.0499963786545479   F   F   F
  0.6277578011989107  0.9236075517169979  0.1303932065727267   F   F   F
  0.6989168430191057  0.7800059105684127  0.2225661840045490   F   F   F
  0.6222664635151602  0.4485233850092314  0.1314846070363629   F   F   F
  0.2889005702249642  0.8668312423011116  0.3197054034010392   T   T   T
  0.2792035565351938  0.9034454831176575  0.0410961363181812   F   F   F
  0.6143503406269275  0.7101301790452794  0.1300746441954530   F   F   F
  0.2165096431681519  0.0224182010065732  0.2257764199409067   F   F   F
  0.5361482883496507  0.3764256073029557  0.0401335441090893   F   F   F
  0.3702343115390931  0.2105192803882190  0.1365703187000022   F   F   F
  0.1326484000424202  0.6896726429153901  0.1374850507500014   F   F   F
  0.5353988962948533  0.8584190387650767  0.3184896652395695   T   T   T
  0.7841087454784841  0.1257091519028322  0.0403582594772729   F   F   F
  0.5329206264284778  0.8661142146417120  0.0408235199181846   F   F   F
  0.2106888119822869  0.5229193255242919  0.2214641484136379   F   F   F
  0.8693192534775847  0.9736660002521731  0.1323443272500029   F   F   F
  0.7050605033612314  0.2914274399005166  0.2245332657363619   F   F   F
  0.4533111685043210  0.2946908516218798  0.2235118708227262   F   F   F
  0.8556987306866617  0.4497894098625466  0.1313302277681814   F   F   F
  0.1273694145296886  0.1919494531582799  0.1306615633954564   F   F   F
  0.7725967245697234  0.5982079950527108  0.0420667780727300   F   F   F
  0.2752698282785886  0.6127388501452984  0.0463555859136378   F   F   F
  0.3852170713906986  0.4500455704928612  0.1318572647090903   F   F   F
  0.7772342619953576  0.3801024125381744  0.3195636425271177   T   T   T
  0.7757829137447203  0.3655372166679172  0.0436342522727244   F   F   F
  0.9538253258237788  0.0428579507644642  0.2228099709181848   F   F   F
  0.4551161067616150  0.7837870906559559  0.2271676499863631   F   F   F
  0.8708403433932257  0.5783699805764967  0.4673548688540545   T   T   T
 
  0.00000000E+00  0.00000000E+00  0.00000000E+00
  0.00000000E+00  0.00000000E+00  0.00000000E+00
  0.00000000E+00  0.00000000E+00  0.00000000E+00
  0.00000000E+00  0.00000000E+00  0.00000000E+00
  0.00000000E+00  0.00000000E+00  0.00000000E+00
  0.00000000E+00  0.00000000E+00  0.00000000E+00
  0.00000000E+00  0.00000000E+00  0.00000000E+00
  0.00000000E+00  0.00000000E+00  0.00000000E+00
  0.00000000E+00  0.00000000E+00  0.00000000E+00
  0.00000000E+00  0.00000000E+00  0.00000000E+00
  0.00000000E+00  0.00000000E+00  0.00000000E+00
  0.00000000E+00  0.00000000E+00  0.00000000E+00
  0.00000000E+00  0.00000000E+00  0.00000000E+00
  0.00000000E+00  0.00000000E+00  0.00000000E+00
  0.00000000E+00  0.00000000E+00  0.00000000E+00
  0.00000000E+00  0.00000000E+00  0.00000000E+00
  0.00000000E+00  0.00000000E+00  0.00000000E+00
  0.00000000E+00  0.00000000E+00  0.00000000E+00
  0.00000000E+00  0.00000000E+00  0.00000000E+00
  0.00000000E+00  0.00000000E+00  0.00000000E+00
  0.00000000E+00  0.00000000E+00  0.00000000E+00
  0.00000000E+00  0.00000000E+00  0.00000000E+00
  0.00000000E+00  0.00000000E+00  0.00000000E+00
  0.00000000E+00  0.00000000E+00  0.00000000E+00
  0.00000000E+00  0.00000000E+00  0.00000000E+00
  0.00000000E+00  0.00000000E+00  0.00000000E+00
  0.00000000E+00  0.00000000E+00  0.00000000E+00
  0.00000000E+00  0.00000000E+00  0.00000000E+00
  0.00000000E+00  0.00000000E+00  0.00000000E+00
  0.00000000E+00  0.00000000E+00  0.00000000E+00
  0.00000000E+00  0.00000000E+00  0.00000000E+00
  0.00000000E+00  0.00000000E+00  0.00000000E+00
  0.00000000E+00  0.00000000E+00  0.00000000E+00
  0.00000000E+00  0.00000000E+00  0.00000000E+00
  0.00000000E+00  0.00000000E+00  0.00000000E+00
  0.00000000E+00  0.00000000E+00  0.00000000E+00
  0.00000000E+00  0.00000000E+00  0.00000000E+00
  0.00000000E+00  0.00000000E+00  0.00000000E+00
  0.00000000E+00  0.00000000E+00  0.00000000E+00
  0.00000000E+00  0.00000000E+00  0.00000000E+00
  0.00000000E+00  0.00000000E+00  0.00000000E+00
  0.00000000E+00  0.00000000E+00  0.00000000E+00
  0.00000000E+00  0.00000000E+00  0.00000000E+00
  0.00000000E+00  0.00000000E+00  0.00000000E+00
  0.00000000E+00  0.00000000E+00  0.00000000E+00
  0.00000000E+00  0.00000000E+00  0.00000000E+00
  0.00000000E+00  0.00000000E+00  0.00000000E+00
  0.00000000E+00  0.00000000E+00  0.00000000E+00
  0.00000000E+00  0.00000000E+00  0.00000000E+00
  0.00000000E+00  0.00000000E+00  0.00000000E+00
  0.00000000E+00  0.00000000E+00  0.00000000E+00
  0.00000000E+00  0.00000000E+00  0.00000000E+00
  0.00000000E+00  0.00000000E+00  0.00000000E+00
  0.00000000E+00  0.00000000E+00  0.00000000E+00
  0.00000000E+00  0.00000000E+00  0.00000000E+00
  0.00000000E+00  0.00000000E+00  0.00000000E+00
  0.00000000E+00  0.00000000E+00  0.00000000E+00
  0.00000000E+00  0.00000000E+00  0.00000000E+00
  0.00000000E+00  0.00000000E+00  0.00000000E+00
  0.00000000E+00  0.00000000E+00  0.00000000E+00
  0.00000000E+00  0.00000000E+00  0.00000000E+00
  0.00000000E+00  0.00000000E+00  0.00000000E+00
  0.00000000E+00  0.00000000E+00  0.00000000E+00
  0.00000000E+00  0.00000000E+00  0.00000000E+00
  0.00000000E+00  0.00000000E+00  0.00000000E+00
  0.00000000E+00  0.00000000E+00  0.00000000E+00
  0.00000000E+00  0.00000000E+00  0.00000000E+00
  0.00000000E+00  0.00000000E+00  0.00000000E+00
  0.00000000E+00  0.00000000E+00  0.00000000E+00
  0.00000000E+00  0.00000000E+00  0.00000000E+00
  0.00000000E+00  0.00000000E+00  0.00000000E+00
  0.00000000E+00  0.00000000E+00  0.00000000E+00
  0.00000000E+00  0.00000000E+00  0.00000000E+00
  0.00000000E+00  0.00000000E+00  0.00000000E+00
  0.00000000E+00  0.00000000E+00  0.00000000E+00
  0.00000000E+00  0.00000000E+00  0.00000000E+00
  0.00000000E+00  0.00000000E+00  0.00000000E+00
  0.00000000E+00  0.00000000E+00  0.00000000E+00
  0.00000000E+00  0.00000000E+00  0.00000000E+00
  0.00000000E+00  0.00000000E+00  0.00000000E+00
  0.00000000E+00  0.00000000E+00  0.00000000E+00
