11.16                                   
   1.00000000000000     
    11.1599998474000000    0.0000000000000000    0.0000000000000000
     5.5799999237000000    9.6648433741000002    0.0000000000000000
     0.0000000000000000    0.0000000000000000   22.0000000000000000
   Pt   Fe   Co   Cu   Ni   H 
    32    13    10    13    12     1
Selective dynamics
Direct
  0.7836932305858373  0.8821103193478684  0.3067646413193836   T   T   T
  0.0384635733261896  0.8791007275043472  0.3022347246156142   T   T   T
  0.2785232200247839  0.3727573694080508  0.3145008980248544   T   T   T
  0.8741808780626940  0.9637462626559162  0.4081410925693939   T   T   T
  0.1099204426319012  0.4700668043000087  0.4143445811955075   T   T   T
  0.1237131230307972  0.9573595752035395  0.4083694429502878   T   T   T
  0.8744635713288236  0.4549393194035529  0.4167668274545169   T   T   T
  0.3717193914903247  0.9586920099110867  0.4135212927108050   T   T   T
  0.8707934316986127  0.2116788935377138  0.4091052018453918   T   T   T
  0.1252667494603028  0.2127164136900578  0.4131707261868397   T   T   T
  0.6257858432158718  0.9558025545594050  0.4120391255633123   T   T   T
  0.8711473648043654  0.7154942961520820  0.4140897983274396   T   T   T
  0.3725974662088019  0.2025577160049613  0.4170336612667499   T   T   T
  0.3738955141274742  0.7111044489812488  0.4117799792219484   T   T   T
  0.6260966766158766  0.4633531829299691  0.4141824769580796   T   T   T
  0.1184312267728008  0.7130650431755513  0.4126068524312290   T   T   T
  0.6292417953632069  0.2061872107616276  0.4136180610341146   T   T   T
  0.5410324058583710  0.3785846741510703  0.3147633212699781   T   T   T
  0.5304926872443019  0.1267575602149324  0.3113347001070166   T   T   T
  0.5479360330018892  0.1255909399993769  0.0556212010000010   F   F   F
  0.1050472610022197  0.4365478169989387  0.1244170880000013   F   F   F
  0.0483353361576244  0.1328512443439176  0.3105953899991795   T   T   T
  0.0252908159984528  0.1249324719980223  0.0404736890000024   F   F   F
  0.1302648480056590  0.9552854379970483  0.1381767990000000   F   F   F
  0.3647995414017859  0.4672731469343730  0.4161497989334198   T   T   T
  0.4550904889956513  0.5565127150030875  0.2215455449999979   F   F   F
  0.6194941613020465  0.7116943792806455  0.4144050373904939   T   T   T
  0.9509405679971650  0.7708154409997050  0.2115423250000035   F   F   F
  0.7969799903337700  0.6240475947591504  0.3161324852242671   T   T   T
  0.2783568724541438  0.6276027795822526  0.3113782984705102   T   T   T
  0.1908233009982538  0.2723671880037202  0.2256696439999999   F   F   F
  0.6991999430008917  0.5561380480002356  0.2216657290000015   F   F   F
  0.0364451878951529  0.6338301946330134  0.3153533266855410   T   T   T
  0.7946764739981020  0.8597211840045702  0.0603210109999992   F   F   F
  0.0472277110004455  0.8608318650042008  0.0526243289999968   F   F   F
  0.0485999499998186  0.6467734080048757  0.0614832309999969   F   F   F
  0.6256235380037083  0.2386853370000779  0.1339005230000012   F   F   F
  0.3812980910045098  0.9505843839973807  0.1357545959999982   F   F   F
  0.0316990994453037  0.3843114741010668  0.3198621143543398   T   T   T
  0.9912695609975515  0.3684184990045480  0.0440217040000022   F   F   F
  0.8635013100046720  0.2184212299970767  0.1330608560000002   F   F   F
  0.9518373099983606  0.5353226950024705  0.2223101310000004   F   F   F
  0.2995387545181604  0.1132275332139268  0.3186840543271982   T   T   T
  0.5408401853950658  0.6254554592542760  0.3199874225955280   T   T   T
  0.2807374070033362  0.1057206180017545  0.0521704009999979   F   F   F
  0.5389871579988039  0.6297256979983672  0.0482680530000010   F   F   F
  0.2984369150014814  0.4021714700019103  0.0563919000000013   F   F   F
  0.6229950689996713  0.9410554790027277  0.1384750280000020   F   F   F
  0.7030949789992391  0.7872524540014609  0.2202327469999972   F   F   F
  0.8492780659956765  0.6806581090004045  0.1312540879999986   F   F   F
  0.6167672719963306  0.4701632850023429  0.1300353250000015   F   F   F
  0.2970024372549340  0.8779332168952071  0.3174985132247222   T   T   T
  0.3010432329997101  0.8779877230023061  0.0477690259999974   F   F   F
  0.6085638729960010  0.7220527840007378  0.1306725419999992   F   F   F
  0.2344297509992543  0.0211869069962134  0.2284564759999981   F   F   F
  0.5345829480016135  0.3861113929999433  0.0411396889999978   F   F   F
  0.3654986089970507  0.2055446419984008  0.1382749189999970   F   F   F
  0.1632348660030445  0.7032863599957651  0.1453273950000025   F   F   F
  0.6943087199969469  0.0635364790024013  0.2192384980000028   F   F   F
  0.7876780354471383  0.1318947565460729  0.3116168817409695   T   T   T
  0.5401588824407371  0.8721593923468393  0.3161692481545619   T   T   T
  0.7846798790017004  0.1256469870018009  0.0427919030000012   F   F   F
  0.5372086529994675  0.8832323749990323  0.0436522959999976   F   F   F
  0.2017743049958654  0.5253248889998474  0.2194479380000018   F   F   F
  0.9396576839989592  0.3052585559954508  0.2247454689999984   F   F   F
  0.8650139610018002  0.9809937170019438  0.1369568650000019   F   F   F
  0.7110290679977993  0.3025694279988613  0.2258082520000002   F   F   F
  0.4534265499967844  0.2969096760005385  0.2215668939999986   F   F   F
  0.8590857100010396  0.4481114409992486  0.1318170369999976   F   F   F
  0.1134855920053752  0.1976785879965632  0.1337839910000014   F   F   F
  0.7711452319973731  0.6097180460049358  0.0462050280000028   F   F   F
  0.2956336770026624  0.6272833540010225  0.0522508780000024   F   F   F
  0.3842174690008733  0.7187581390005562  0.1329304850000028   F   F   F
  0.3925397009957408  0.4550135800011859  0.1351707090000005   F   F   F
  0.7864483638371196  0.3887924394698756  0.3183052414976276   T   T   T
  0.7750661889946855  0.3681197870039270  0.0452688499999994   F   F   F
  0.9449614759988236  0.0723766599958111  0.2217785010000028   F   F   F
  0.4633447139960225  0.7962897130049598  0.2274368460000034   F   F   F
  0.2354054279977760  0.7988368000033859  0.2276622600000024   F   F   F
  0.4587377860000856  0.0246024700035150  0.2248121169999990   F   F   F
  0.4571232564137019  0.2984129322290958  0.4513485727626783   T   T   T
 
  0.00000000E+00  0.00000000E+00  0.00000000E+00
  0.00000000E+00  0.00000000E+00  0.00000000E+00
  0.00000000E+00  0.00000000E+00  0.00000000E+00
  0.00000000E+00  0.00000000E+00  0.00000000E+00
  0.00000000E+00  0.00000000E+00  0.00000000E+00
  0.00000000E+00  0.00000000E+00  0.00000000E+00
  0.00000000E+00  0.00000000E+00  0.00000000E+00
  0.00000000E+00  0.00000000E+00  0.00000000E+00
  0.00000000E+00  0.00000000E+00  0.00000000E+00
  0.00000000E+00  0.00000000E+00  0.00000000E+00
  0.00000000E+00  0.00000000E+00  0.00000000E+00
  0.00000000E+00  0.00000000E+00  0.00000000E+00
  0.00000000E+00  0.00000000E+00  0.00000000E+00
  0.00000000E+00  0.00000000E+00  0.00000000E+00
  0.00000000E+00  0.00000000E+00  0.00000000E+00
  0.00000000E+00  0.00000000E+00  0.00000000E+00
  0.00000000E+00  0.00000000E+00  0.00000000E+00
  0.00000000E+00  0.00000000E+00  0.00000000E+00
  0.00000000E+00  0.00000000E+00  0.00000000E+00
  0.00000000E+00  0.00000000E+00  0.00000000E+00
  0.00000000E+00  0.00000000E+00  0.00000000E+00
  0.00000000E+00  0.00000000E+00  0.00000000E+00
  0.00000000E+00  0.00000000E+00  0.00000000E+00
  0.00000000E+00  0.00000000E+00  0.00000000E+00
  0.00000000E+00  0.00000000E+00  0.00000000E+00
  0.00000000E+00  0.00000000E+00  0.00000000E+00
  0.00000000E+00  0.00000000E+00  0.00000000E+00
  0.00000000E+00  0.00000000E+00  0.00000000E+00
  0.00000000E+00  0.00000000E+00  0.00000000E+00
  0.00000000E+00  0.00000000E+00  0.00000000E+00
  0.00000000E+00  0.00000000E+00  0.00000000E+00
  0.00000000E+00  0.00000000E+00  0.00000000E+00
  0.00000000E+00  0.00000000E+00  0.00000000E+00
  0.00000000E+00  0.00000000E+00  0.00000000E+00
  0.00000000E+00  0.00000000E+00  0.00000000E+00
  0.00000000E+00  0.00000000E+00  0.00000000E+00
  0.00000000E+00  0.00000000E+00  0.00000000E+00
  0.00000000E+00  0.00000000E+00  0.00000000E+00
  0.00000000E+00  0.00000000E+00  0.00000000E+00
  0.00000000E+00  0.00000000E+00  0.00000000E+00
  0.00000000E+00  0.00000000E+00  0.00000000E+00
  0.00000000E+00  0.00000000E+00  0.00000000E+00
  0.00000000E+00  0.00000000E+00  0.00000000E+00
  0.00000000E+00  0.00000000E+00  0.00000000E+00
  0.00000000E+00  0.00000000E+00  0.00000000E+00
  0.00000000E+00  0.00000000E+00  0.00000000E+00
  0.00000000E+00  0.00000000E+00  0.00000000E+00
  0.00000000E+00  0.00000000E+00  0.00000000E+00
  0.00000000E+00  0.00000000E+00  0.00000000E+00
  0.00000000E+00  0.00000000E+00  0.00000000E+00
  0.00000000E+00  0.00000000E+00  0.00000000E+00
  0.00000000E+00  0.00000000E+00  0.00000000E+00
  0.00000000E+00  0.00000000E+00  0.00000000E+00
  0.00000000E+00  0.00000000E+00  0.00000000E+00
  0.00000000E+00  0.00000000E+00  0.00000000E+00
  0.00000000E+00  0.00000000E+00  0.00000000E+00
  0.00000000E+00  0.00000000E+00  0.00000000E+00
  0.00000000E+00  0.00000000E+00  0.00000000E+00
  0.00000000E+00  0.00000000E+00  0.00000000E+00
  0.00000000E+00  0.00000000E+00  0.00000000E+00
  0.00000000E+00  0.00000000E+00  0.00000000E+00
  0.00000000E+00  0.00000000E+00  0.00000000E+00
  0.00000000E+00  0.00000000E+00  0.00000000E+00
  0.00000000E+00  0.00000000E+00  0.00000000E+00
  0.00000000E+00  0.00000000E+00  0.00000000E+00
  0.00000000E+00  0.00000000E+00  0.00000000E+00
  0.00000000E+00  0.00000000E+00  0.00000000E+00
  0.00000000E+00  0.00000000E+00  0.00000000E+00
  0.00000000E+00  0.00000000E+00  0.00000000E+00
  0.00000000E+00  0.00000000E+00  0.00000000E+00
  0.00000000E+00  0.00000000E+00  0.00000000E+00
  0.00000000E+00  0.00000000E+00  0.00000000E+00
  0.00000000E+00  0.00000000E+00  0.00000000E+00
  0.00000000E+00  0.00000000E+00  0.00000000E+00
  0.00000000E+00  0.00000000E+00  0.00000000E+00
  0.00000000E+00  0.00000000E+00  0.00000000E+00
  0.00000000E+00  0.00000000E+00  0.00000000E+00
  0.00000000E+00  0.00000000E+00  0.00000000E+00
  0.00000000E+00  0.00000000E+00  0.00000000E+00
  0.00000000E+00  0.00000000E+00  0.00000000E+00
  0.00000000E+00  0.00000000E+00  0.00000000E+00
