Pt   H                                  
   1.00000000000000     
    11.2227001190000006    0.0000000000000000    0.0000000000000000
     5.6113500595000003    9.7191434021000003    0.0000000000000000
     0.0000000000000000    0.0000000000000000   22.0000000000000000
   Pt   H 
    80    17
Direct
  0.7838111652016523  0.8707216288217998  0.3258761422945000
  0.0336348865658576  0.8708547427839086  0.3259499457471675
  0.0336279896702018  0.6207515717902704  0.3259415907919417
  0.7849691181088116  0.8697022319575510  0.0208695200404290
  0.0343124182837892  0.8698410166143088  0.0210120190255852
  0.0343938567147127  0.6201234925167549  0.0210140228548088
  0.6175539223010408  0.2036175344081451  0.1242902969517539
  0.3674555610789373  0.9537205469297891  0.1241725453188045
  0.0333167276321201  0.3708013787525470  0.3262578078146591
  0.0348514231447576  0.3690437073392623  0.0213862234999805
  0.8674810554488350  0.2037202610557555  0.1245464959456543
  0.9505338706483049  0.5369999508152308  0.2246583795565978
  0.2831852585766309  0.1210730036321926  0.3259846684545271
  0.5334923278694104  0.6206431731133536  0.3262708661911561
  0.2829485678521217  0.3698970043082248  0.3250317982861642
  0.2837958653081681  0.1203097492106745  0.0209236108462930
  0.5349977050986063  0.6191335659993571  0.0209367053790285
  0.2846271531470074  0.3695118123660678  0.0209914668421274
  0.6176360805390075  0.9535061078180114  0.1242339374020095
  0.7005528979565563  0.7871668591806995  0.2244249284713032
  0.8674607637246218  0.7035632985917062  0.1244097677888591
  0.6177721167765516  0.4534315346497075  0.1245487557157595
  0.2828385237930132  0.8725212000573327  0.3249498892545042
  0.2846171969601508  0.8702576822106570  0.0209966316208066
  0.6175727094597760  0.7034318815667806  0.1242997500674435
  0.2004765154397797  0.0370560987993487  0.2244799006749019
  0.8671976193206113  0.9539875624913747  0.4319410421388609
  0.1173091923463068  0.4544984662454875  0.4319898533208908
  0.1171772455938317  0.9540519440128551  0.4319863930393903
  0.8671964818651622  0.4544586709246616  0.4322334078832762
  0.3666930443401588  0.9540935607618238  0.4317272831191706
  0.8671846092708226  0.2041484498837739  0.4322704894322927
  0.1167298849035193  0.2045071937311546  0.4320900506992859
  0.6165641431320832  0.9546537392720729  0.4316599138706486
  0.8672281849631904  0.7045831935680439  0.4319213521221174
  0.3667347727018468  0.2049526267732060  0.4317917815590012
  0.3657722915542561  0.7035908047649071  0.4290857737117403
  0.6105490969520777  0.4577681289241756  0.4352609966446462
  0.1178453971184582  0.7039555982258431  0.4322102005857148
  0.6158445433997098  0.2047244055824216  0.4313097123149928
  0.5334154051351168  0.3711614987403112  0.3262990571257088
  0.5349157025140348  0.3701717040004665  0.0209655762995361
  0.5332459307694136  0.1205714251511895  0.3255670046622736
  0.5345928062839811  0.1198975874583746  0.0211197712239487
  0.8674776249775275  0.4534382993631000  0.1245574290810042
  0.1173601711785997  0.4535974200230059  0.1242382087710740
  0.0332811032734210  0.1211502045273846  0.3262201843134726
  0.0348231226803643  0.1205324440224157  0.0213744838469837
  0.1173524937154386  0.9537257024772873  0.1242279333841085
  0.3659095862598343  0.4564947942722878  0.4292904780258704
  0.4506940465272421  0.5371055473313195  0.2244099297632853
  0.6158154212503082  0.7053307133853065  0.4313445835366488
  0.3674577344617805  0.2034667732331125  0.1241587841500147
  0.1173339450971122  0.2036829894811811  0.1251690445789826
  0.9504746383027058  0.7872134468567068  0.2244455765858754
  0.7837378048256901  0.6210396267586888  0.3261213659902045
  0.2824683801311232  0.6213788970344118  0.3250884495154872
  0.7844358907169877  0.6203203948936737  0.0212472385329374
  0.2848799342173162  0.6198454585418260  0.0209995311495897
  0.3675127485911189  0.7037467095948146  0.1240435700713411
  0.3674959505384284  0.4534066223551113  0.1240386040555393
  0.2004869679885303  0.2874239679021300  0.2244861325205252
  0.7811398542278094  0.3720116448280503  0.3279180430538452
  0.7843551193726118  0.3700164175235185  0.0210759281480570
  0.9505150391272806  0.0373639006591206  0.2246495269529606
  0.4513690682254844  0.7859294477442496  0.2244705383974950
  0.7004398720166162  0.5372010847885156  0.2249686814204561
  0.2002871177507051  0.7871524495796509  0.2241036201206867
  0.4501885629831660  0.0373688371630391  0.2241539038715246
  0.1173841477323966  0.7036344722886063  0.1241598355551847
  0.7005286954733035  0.0371778947179156  0.2244260093238467
  0.7837384464966454  0.1204474750580533  0.3261251748381778
  0.5332660383994658  0.8714239935999190  0.3255661420664064
  0.7844567237898804  0.1196850003570547  0.0212435458391800
  0.5345467859630251  0.8697840400665989  0.0211407514296043
  0.2003119602082993  0.5374537641845601  0.2241302818209003
  0.9480888929449687  0.2884266655955051  0.2257022389764626
  0.8674541869397866  0.9536138389263871  0.1244060151184632
  0.7004130103760400  0.2872262408247829  0.2249477699122331
  0.4513353293282851  0.2876191381864311  0.2244667931808585
  0.5106212402299811  0.5044999510358781  0.5136770125215085
  0.5894839409364606  0.4709846790513429  0.5253727419119056
  0.7108448879759290  0.5464193937647045  0.4727026801359581
  0.2025384562053993  0.7857380039825170  0.4724747410807914
  0.4487768735503649  0.7855698507401462  0.4716266273860297
  0.7000139588978114  0.7883451948913728  0.4723111121410781
  0.9506783695504502  0.7874623124641654  0.4728472156793131
  0.2026868136749096  0.5373662364860939  0.4725438821491086
  0.9511528924955331  0.5381138916224180  0.4728631005585448
  0.2006518224327531  0.2876123589450353  0.4728650990569462
  0.4487457667949263  0.2913058796084756  0.4716815221005022
  0.7101309765784308  0.2699693813873645  0.4724706150708142
  0.9487461597503770  0.2884519360559962  0.4733156531102610
  0.2006522965432939  0.0373539660751752  0.4728567412194360
  0.4501784833446594  0.0377085394468663  0.4724317358762519
  0.7000600027928816  0.0374230147593877  0.4723303266382138
  0.9509269495558562  0.0364814177771569  0.4729087673168108
 
             NaN             NaN             NaN
             NaN             NaN             NaN
             NaN             NaN             NaN
             NaN             NaN             NaN
             NaN             NaN             NaN
             NaN             NaN             NaN
             NaN             NaN             NaN
             NaN             NaN             NaN
             NaN             NaN             NaN
             NaN             NaN             NaN
             NaN             NaN             NaN
             NaN             NaN             NaN
             NaN             NaN             NaN
             NaN             NaN             NaN
             NaN             NaN             NaN
             NaN             NaN             NaN
             NaN             NaN             NaN
             NaN             NaN             NaN
             NaN             NaN             NaN
             NaN             NaN             NaN
             NaN             NaN             NaN
             NaN             NaN             NaN
             NaN             NaN             NaN
             NaN             NaN             NaN
             NaN             NaN             NaN
             NaN             NaN             NaN
             NaN             NaN             NaN
             NaN             NaN             NaN
             NaN             NaN             NaN
             NaN             NaN             NaN
             NaN             NaN             NaN
             NaN             NaN             NaN
             NaN             NaN             NaN
             NaN             NaN             NaN
             NaN             NaN             NaN
             NaN             NaN             NaN
             NaN             NaN             NaN
             NaN             NaN             NaN
             NaN             NaN             NaN
             NaN             NaN             NaN
             NaN             NaN             NaN
             NaN             NaN             NaN
             NaN             NaN             NaN
             NaN             NaN             NaN
             NaN             NaN             NaN
             NaN             NaN             NaN
             NaN             NaN             NaN
             NaN             NaN             NaN
             NaN             NaN             NaN
             NaN             NaN             NaN
             NaN             NaN             NaN
             NaN             NaN             NaN
             NaN             NaN             NaN
             NaN             NaN             NaN
             NaN             NaN             NaN
             NaN             NaN             NaN
             NaN             NaN             NaN
             NaN             NaN             NaN
             NaN             NaN             NaN
             NaN             NaN             NaN
             NaN             NaN             NaN
             NaN             NaN             NaN
             NaN             NaN             NaN
             NaN             NaN             NaN
             NaN             NaN             NaN
             NaN             NaN             NaN
             NaN             NaN             NaN
             NaN             NaN             NaN
             NaN             NaN             NaN
             NaN             NaN             NaN
             NaN             NaN             NaN
             NaN             NaN             NaN
             NaN             NaN             NaN
             NaN             NaN             NaN
             NaN             NaN             NaN
             NaN             NaN             NaN
             NaN             NaN             NaN
             NaN             NaN             NaN
             NaN             NaN             NaN
             NaN             NaN             NaN
             NaN             NaN             NaN
             NaN             NaN             NaN
             NaN             NaN             NaN
             NaN             NaN             NaN
             NaN             NaN             NaN
             NaN             NaN             NaN
             NaN             NaN             NaN
             NaN             NaN             NaN
             NaN             NaN             NaN
             NaN             NaN             NaN
             NaN             NaN             NaN
             NaN             NaN             NaN
             NaN             NaN             NaN
             NaN             NaN             NaN
             NaN             NaN             NaN
             NaN             NaN             NaN
             NaN             NaN             NaN
