Pt111                                   
   1.00000000000000     
    11.2227001190000006    0.0000000000000000    0.0000000000000000
     5.6113500595000003    9.7191434021000003    0.0000000000000000
     0.0000000000000000    0.0000000000000000   22.0000000000000000
   Pt   H 
    80     2
Direct
  0.7861262122457393  0.8672527474123902  0.3265433252278941
  0.0363089219917443  0.8670442410789406  0.3269361964173345
  0.0363159492549105  0.6175954323596710  0.3268528000458342
  0.7852934593004678  0.8685041902514006  0.0225924795094405
  0.0355520556062045  0.8683940490262251  0.0228377367736625
  0.0351626718016076  0.6188369587089649  0.0228562184081989
  0.6188766252002826  0.2014346273323089  0.1258615703664280
  0.3692498715391432  0.9510106491003906  0.1259624301171021
  0.0359784474656760  0.3676194419879327  0.3263730105431701
  0.0351696806593906  0.3688273231074288  0.0231872894283538
  0.8688588165898280  0.2013952815536685  0.1257983394370102
  0.9524312764164442  0.5344888716455617  0.2261228375845702
  0.2862833331510170  0.1174083964519313  0.3263113239173362
  0.5356048163777301  0.6176765339514055  0.3281490617662029
  0.2863308374897298  0.3678650916970319  0.3269376399631634
  0.2856657003567530  0.1182595355962002  0.0229877229382093
  0.5354124157266493  0.6184979680544911  0.0231978229728318
  0.2853770550408379  0.3686660150780666  0.0230918645022381
  0.6190110377112178  0.9514819031290027  0.1256744752047317
  0.7024570388865601  0.7842518120456876  0.2262891491799161
  0.8689642588823537  0.7015239937364799  0.1258096039315742
  0.6183678176195299  0.4517715471646130  0.1263031804976884
  0.2864885660755889  0.8666981899018769  0.3274639857372120
  0.2853771329611292  0.8685081661899988  0.0230506535400764
  0.6189080409273185  0.7014629455194118  0.1261410872032442
  0.2025165219273108  0.0344078260730050  0.2261196202591133
  0.8689196174611333  0.9509106029600366  0.4296497250833665
  0.1185097850493660  0.4489854710313828  0.4294680180103183
  0.1174907525679642  0.9541027714096768  0.4293961438602584
  0.8721811291639762  0.4488723303911875  0.4294867247869972
  0.3683242060678447  0.9541341900471055  0.4294254213787139
  0.8697806892937390  0.1998670727000621  0.4295773852430556
  0.1196126742859073  0.2004212281700207  0.4294135419569822
  0.6198273743759400  0.9506994937651210  0.4296458663495910
  0.8696674753793270  0.7000233371817687  0.4297611004866598
  0.3702576012127244  0.1999175445080442  0.4295658976013858
  0.3670738530510460  0.7053776518584289  0.4340861834761089
  0.6240015405828978  0.4452623616693520  0.4318871122097372
  0.1142066349235537  0.7027272152686098  0.4317172183621639
  0.6202515491711597  0.1992109438516385  0.4297286895022620
  0.5358773507941849  0.3679969383572294  0.3274788598159830
  0.5353077568770247  0.3687178063661084  0.0229826146590045
  0.5363398804729479  0.1172558602271997  0.3264362891402117
  0.5354941876400587  0.1186250708563545  0.0226739097696382
  0.8684523636352113  0.4517208686435506  0.1258948966913797
  0.1192035340444795  0.4517071830789825  0.1259233785884794
  0.0359067006902744  0.1173182530357914  0.3262935501244449
  0.0352626035478057  0.1182725003194645  0.0229957417642486
  0.1191432681428115  0.9510137540371353  0.1259813934224357
  0.3705159409958902  0.4452983908293152  0.4317153615080551
  0.4523947898905433  0.5346350336261444  0.2270837436966747
  0.6222119879775294  0.7025821767067080  0.4317540809354761
  0.3691096828609156  0.2014395134675628  0.1257771952500383
  0.1189545081520487  0.2014759441203432  0.1257233083241515
  0.9526685746988128  0.7843495578701075  0.2263054641339309
  0.7856050891140504  0.6175875612676492  0.3268924224636510
  0.2863119433110091  0.6177579278610431  0.3281637057750125
  0.7851272058619307  0.6188386051662872  0.0228509519113145
  0.2853352220723421  0.6185882258512613  0.0232124503027900
  0.3689861454359759  0.7013633465989654  0.1263429719747050
  0.3691269820579956  0.4517493494277078  0.1262440553302243
  0.2025824126417589  0.2844378160632721  0.2262645951674093
  0.7853425982421985  0.3678064725836140  0.3269374682618798
  0.7851246980291270  0.3686248415485792  0.0231301072064482
  0.9523848927108245  0.0343121205329845  0.2260740520455624
  0.4524218973719661  0.7843109151385662  0.2267823578735217
  0.7024565370100990  0.5344670816026690  0.2265702414292662
  0.2027685445472306  0.7843044850766647  0.2268180114579926
  0.4527425819793331  0.0342690833973339  0.2261183472796594
  0.1189834830512659  0.7014161586085255  0.1261163715175455
  0.7025785470799909  0.0342810285999935  0.2260842092131227
  0.7860450552592557  0.1171881794451360  0.3264323380564181
  0.5363295991751562  0.8669522104394871  0.3269343913269128
  0.7851050306035350  0.1186713224247067  0.0227017798049948
  0.5353733583332835  0.8683295647777681  0.0228353194576997
  0.2025674422194886  0.5345244841929434  0.2265972334082002
  0.9524255419800238  0.2844316025856961  0.2262632160632419
  0.8688736704650383  0.9513935676425384  0.1256385903888230
  0.7022991654109951  0.2846411747369259  0.2263879137553436
  0.4525035945044434  0.2846320651807972  0.2263850267126994
  0.2810752425254812  0.6193423018882853  0.4706570395942865
  0.5376705972322102  0.6161741807876804  0.4709346366169902
 
  0.00000000E+00  0.00000000E+00  0.00000000E+00
  0.00000000E+00  0.00000000E+00  0.00000000E+00
  0.00000000E+00  0.00000000E+00  0.00000000E+00
  0.00000000E+00  0.00000000E+00  0.00000000E+00
  0.00000000E+00  0.00000000E+00  0.00000000E+00
  0.00000000E+00  0.00000000E+00  0.00000000E+00
  0.00000000E+00  0.00000000E+00  0.00000000E+00
  0.00000000E+00  0.00000000E+00  0.00000000E+00
  0.00000000E+00  0.00000000E+00  0.00000000E+00
  0.00000000E+00  0.00000000E+00  0.00000000E+00
  0.00000000E+00  0.00000000E+00  0.00000000E+00
  0.00000000E+00  0.00000000E+00  0.00000000E+00
  0.00000000E+00  0.00000000E+00  0.00000000E+00
  0.00000000E+00  0.00000000E+00  0.00000000E+00
  0.00000000E+00  0.00000000E+00  0.00000000E+00
  0.00000000E+00  0.00000000E+00  0.00000000E+00
  0.00000000E+00  0.00000000E+00  0.00000000E+00
  0.00000000E+00  0.00000000E+00  0.00000000E+00
  0.00000000E+00  0.00000000E+00  0.00000000E+00
  0.00000000E+00  0.00000000E+00  0.00000000E+00
  0.00000000E+00  0.00000000E+00  0.00000000E+00
  0.00000000E+00  0.00000000E+00  0.00000000E+00
  0.00000000E+00  0.00000000E+00  0.00000000E+00
  0.00000000E+00  0.00000000E+00  0.00000000E+00
  0.00000000E+00  0.00000000E+00  0.00000000E+00
  0.00000000E+00  0.00000000E+00  0.00000000E+00
  0.00000000E+00  0.00000000E+00  0.00000000E+00
  0.00000000E+00  0.00000000E+00  0.00000000E+00
  0.00000000E+00  0.00000000E+00  0.00000000E+00
  0.00000000E+00  0.00000000E+00  0.00000000E+00
  0.00000000E+00  0.00000000E+00  0.00000000E+00
  0.00000000E+00  0.00000000E+00  0.00000000E+00
  0.00000000E+00  0.00000000E+00  0.00000000E+00
  0.00000000E+00  0.00000000E+00  0.00000000E+00
  0.00000000E+00  0.00000000E+00  0.00000000E+00
  0.00000000E+00  0.00000000E+00  0.00000000E+00
  0.00000000E+00  0.00000000E+00  0.00000000E+00
  0.00000000E+00  0.00000000E+00  0.00000000E+00
  0.00000000E+00  0.00000000E+00  0.00000000E+00
  0.00000000E+00  0.00000000E+00  0.00000000E+00
  0.00000000E+00  0.00000000E+00  0.00000000E+00
  0.00000000E+00  0.00000000E+00  0.00000000E+00
  0.00000000E+00  0.00000000E+00  0.00000000E+00
  0.00000000E+00  0.00000000E+00  0.00000000E+00
  0.00000000E+00  0.00000000E+00  0.00000000E+00
  0.00000000E+00  0.00000000E+00  0.00000000E+00
  0.00000000E+00  0.00000000E+00  0.00000000E+00
  0.00000000E+00  0.00000000E+00  0.00000000E+00
  0.00000000E+00  0.00000000E+00  0.00000000E+00
  0.00000000E+00  0.00000000E+00  0.00000000E+00
  0.00000000E+00  0.00000000E+00  0.00000000E+00
  0.00000000E+00  0.00000000E+00  0.00000000E+00
  0.00000000E+00  0.00000000E+00  0.00000000E+00
  0.00000000E+00  0.00000000E+00  0.00000000E+00
  0.00000000E+00  0.00000000E+00  0.00000000E+00
  0.00000000E+00  0.00000000E+00  0.00000000E+00
  0.00000000E+00  0.00000000E+00  0.00000000E+00
  0.00000000E+00  0.00000000E+00  0.00000000E+00
  0.00000000E+00  0.00000000E+00  0.00000000E+00
  0.00000000E+00  0.00000000E+00  0.00000000E+00
  0.00000000E+00  0.00000000E+00  0.00000000E+00
  0.00000000E+00  0.00000000E+00  0.00000000E+00
  0.00000000E+00  0.00000000E+00  0.00000000E+00
  0.00000000E+00  0.00000000E+00  0.00000000E+00
  0.00000000E+00  0.00000000E+00  0.00000000E+00
  0.00000000E+00  0.00000000E+00  0.00000000E+00
  0.00000000E+00  0.00000000E+00  0.00000000E+00
  0.00000000E+00  0.00000000E+00  0.00000000E+00
  0.00000000E+00  0.00000000E+00  0.00000000E+00
  0.00000000E+00  0.00000000E+00  0.00000000E+00
  0.00000000E+00  0.00000000E+00  0.00000000E+00
  0.00000000E+00  0.00000000E+00  0.00000000E+00
  0.00000000E+00  0.00000000E+00  0.00000000E+00
  0.00000000E+00  0.00000000E+00  0.00000000E+00
  0.00000000E+00  0.00000000E+00  0.00000000E+00
  0.00000000E+00  0.00000000E+00  0.00000000E+00
  0.00000000E+00  0.00000000E+00  0.00000000E+00
  0.00000000E+00  0.00000000E+00  0.00000000E+00
  0.00000000E+00  0.00000000E+00  0.00000000E+00
  0.00000000E+00  0.00000000E+00  0.00000000E+00
  0.00000000E+00  0.00000000E+00  0.00000000E+00
  0.00000000E+00  0.00000000E+00  0.00000000E+00
