Pt   H                                  
   1.00000000000000     
    11.2227001190000006    0.0000000000000000    0.0000000000000000
     5.6113500595000003    9.7191434021000003    0.0000000000000000
     0.0000000000000000    0.0000000000000000   22.0000000000000000
   Pt   H 
    80     2
Direct
  0.7851256882381806  0.8691446555883438  0.3269033569561374
  0.0350753166842721  0.8689392199102884  0.3272352468072728
  0.0354780356133383  0.6187730575452440  0.3267329015567340
  0.7858537337734167  0.8684378849201970  0.0233263375995966
  0.0361925068685457  0.8684481821318284  0.0231804376433778
  0.0361510304873178  0.6181948801018704  0.0231768362422072
  0.6190443456307666  0.2019567055098773  0.1261896657758755
  0.3686561036637500  0.9519882604812108  0.1264766978196965
  0.0348030095789247  0.3687680117505406  0.3270309245725376
  0.0360413058492869  0.3683142202695542  0.0233493440627058
  0.8690397835705497  0.2019783359453537  0.1265052224301177
  0.9519017133919528  0.5355172331535478  0.2266511119309208
  0.2847274008505648  0.1187245801532156  0.3270638781634551
  0.5351695847549603  0.6189910540704282  0.3275320971371702
  0.2847254997543616  0.3687738694397524  0.3263523205472034
  0.2858245611034341  0.1185735171476233  0.0233661290525270
  0.5359908383336802  0.6184261019286047  0.0233398506741123
  0.2857186599661899  0.3683706043338768  0.0231844613561286
  0.6187164506462149  0.9521500088213721  0.1262278599996871
  0.7019235116750765  0.7854345656640074  0.2264824963122162
  0.8690959375274715  0.7018046654484371  0.1262022390798994
  0.6188423463782544  0.4519398236956530  0.1263739988432460
  0.2858538923150897  0.8673348758128993  0.3282770471366165
  0.2859193513137118  0.8686286319953332  0.0233998370655747
  0.6188727879709083  0.7020201554834551  0.1260981098921949
  0.2021907520012055  0.0343370930721817  0.2273019284832585
  0.8682646834419651  0.9525370158623540  0.4303875034823897
  0.1178565253375717  0.4522904425787848  0.4299317643323231
  0.1166959515718561  0.9538265316166991  0.4305582930661714
  0.8701991805130810  0.4525176290222489  0.4303057619973280
  0.3682349926958591  0.9545075914461196  0.4303472510944425
  0.8695353958338523  0.2009921064439196  0.4305417521761137
  0.1180708030727219  0.2024485640284101  0.4302826887068549
  0.6185114337220039  0.9535310732842359  0.4299988035021439
  0.8691473010893912  0.7029243035216950  0.4299782618581100
  0.3678781508146086  0.2022854857882615  0.4299470757417982
  0.3667052416141212  0.7052748400320695  0.4317728555788593
  0.6215698516986642  0.4502930555120868  0.4314222816779197
  0.1169668565155989  0.7027878236359201  0.4299601344970398
  0.6183422452555001  0.2013116300132592  0.4299938476509079
  0.5348591860912495  0.3693873868576259  0.3275483557470584
  0.5359843659945319  0.3685446996302087  0.0232241412345933
  0.5347955685803144  0.1193682352943680  0.3267483928181192
  0.5357560668469658  0.1186043722250971  0.0231955464951291
  0.8689666145937835  0.4516849442090526  0.1264674227312707
  0.1189593340190529  0.4517284313574431  0.1262840701146037
  0.0349548009904109  0.1187878403625093  0.3272110473270274
  0.0361346736943516  0.1185297013642670  0.0233608019967048
  0.1189018720679658  0.9520458406065598  0.1265093512598690
  0.3658486387336897  0.4501541692327159  0.4294922738986137
  0.4519923181505492  0.5355853041388778  0.2269485019354872
  0.6210668740784113  0.7053155810286650  0.4291185788758905
  0.3686598375652888  0.2020819939378492  0.1262749363280010
  0.1186655044742670  0.2017015468138128  0.1266495769284821
  0.9520183288001081  0.7855927827923918  0.2265577417013273
  0.7855359920292523  0.6188134801886814  0.3268449472880299
  0.2855058916657396  0.6188259100800526  0.3275940377405461
  0.7860135546185570  0.6182591517571550  0.0232050141792185
  0.2860376174989566  0.6184705836708098  0.0232420598506106
  0.3689198999913803  0.7019092288202374  0.1263718968921667
  0.3689696141761023  0.4519572755366079  0.1261509540190632
  0.2016681626024089  0.2851519240155856  0.2268311232018661
  0.7836310987071764  0.3697361434310503  0.3280949366167975
  0.7860496834946251  0.3685039033246438  0.0233911722352021
  0.9516773996832275  0.0352777313622667  0.2268438501383020
  0.4520290271997373  0.7851875657093922  0.2267826438333929
  0.7016692887157873  0.5356236634940454  0.2267273638764254
  0.2022601096203147  0.7851403820701240  0.2269589326052582
  0.4518689905017561  0.0354989518789589  0.2266590337571294
  0.1188657174948345  0.7021405182034971  0.1261710155801967
  0.7020268044694747  0.0355533934784832  0.2265786632377487
  0.7849671047149288  0.1190095723831848  0.3272623842869517
  0.5348176606288445  0.8695085125428131  0.3268476428694482
  0.7859574813684570  0.1186939800558208  0.0232157300458963
  0.5357836325773945  0.8685125770216199  0.0232081995965946
  0.2021483645370352  0.5357816740906686  0.2263940358180306
  0.9509280276003733  0.2856559301007186  0.2272726281088318
  0.8690118351250843  0.9520336072020340  0.1261214445695658
  0.7016470727195354  0.2857334142042446  0.2269421967300195
  0.4522081407679160  0.2856569630172051  0.2264076899731357
  0.4710567840475527  0.5576019751675729  0.5099405951294607
  0.5129170076443883  0.6000729491802534  0.5101903213948641
 
  0.00000000E+00  0.00000000E+00  0.00000000E+00
  0.00000000E+00  0.00000000E+00  0.00000000E+00
  0.00000000E+00  0.00000000E+00  0.00000000E+00
  0.00000000E+00  0.00000000E+00  0.00000000E+00
  0.00000000E+00  0.00000000E+00  0.00000000E+00
  0.00000000E+00  0.00000000E+00  0.00000000E+00
  0.00000000E+00  0.00000000E+00  0.00000000E+00
  0.00000000E+00  0.00000000E+00  0.00000000E+00
  0.00000000E+00  0.00000000E+00  0.00000000E+00
  0.00000000E+00  0.00000000E+00  0.00000000E+00
  0.00000000E+00  0.00000000E+00  0.00000000E+00
  0.00000000E+00  0.00000000E+00  0.00000000E+00
  0.00000000E+00  0.00000000E+00  0.00000000E+00
  0.00000000E+00  0.00000000E+00  0.00000000E+00
  0.00000000E+00  0.00000000E+00  0.00000000E+00
  0.00000000E+00  0.00000000E+00  0.00000000E+00
  0.00000000E+00  0.00000000E+00  0.00000000E+00
  0.00000000E+00  0.00000000E+00  0.00000000E+00
  0.00000000E+00  0.00000000E+00  0.00000000E+00
  0.00000000E+00  0.00000000E+00  0.00000000E+00
  0.00000000E+00  0.00000000E+00  0.00000000E+00
  0.00000000E+00  0.00000000E+00  0.00000000E+00
  0.00000000E+00  0.00000000E+00  0.00000000E+00
  0.00000000E+00  0.00000000E+00  0.00000000E+00
  0.00000000E+00  0.00000000E+00  0.00000000E+00
  0.00000000E+00  0.00000000E+00  0.00000000E+00
  0.00000000E+00  0.00000000E+00  0.00000000E+00
  0.00000000E+00  0.00000000E+00  0.00000000E+00
  0.00000000E+00  0.00000000E+00  0.00000000E+00
  0.00000000E+00  0.00000000E+00  0.00000000E+00
  0.00000000E+00  0.00000000E+00  0.00000000E+00
  0.00000000E+00  0.00000000E+00  0.00000000E+00
  0.00000000E+00  0.00000000E+00  0.00000000E+00
  0.00000000E+00  0.00000000E+00  0.00000000E+00
  0.00000000E+00  0.00000000E+00  0.00000000E+00
  0.00000000E+00  0.00000000E+00  0.00000000E+00
  0.00000000E+00  0.00000000E+00  0.00000000E+00
  0.00000000E+00  0.00000000E+00  0.00000000E+00
  0.00000000E+00  0.00000000E+00  0.00000000E+00
  0.00000000E+00  0.00000000E+00  0.00000000E+00
  0.00000000E+00  0.00000000E+00  0.00000000E+00
  0.00000000E+00  0.00000000E+00  0.00000000E+00
  0.00000000E+00  0.00000000E+00  0.00000000E+00
  0.00000000E+00  0.00000000E+00  0.00000000E+00
  0.00000000E+00  0.00000000E+00  0.00000000E+00
  0.00000000E+00  0.00000000E+00  0.00000000E+00
  0.00000000E+00  0.00000000E+00  0.00000000E+00
  0.00000000E+00  0.00000000E+00  0.00000000E+00
  0.00000000E+00  0.00000000E+00  0.00000000E+00
  0.00000000E+00  0.00000000E+00  0.00000000E+00
  0.00000000E+00  0.00000000E+00  0.00000000E+00
  0.00000000E+00  0.00000000E+00  0.00000000E+00
  0.00000000E+00  0.00000000E+00  0.00000000E+00
  0.00000000E+00  0.00000000E+00  0.00000000E+00
  0.00000000E+00  0.00000000E+00  0.00000000E+00
  0.00000000E+00  0.00000000E+00  0.00000000E+00
  0.00000000E+00  0.00000000E+00  0.00000000E+00
  0.00000000E+00  0.00000000E+00  0.00000000E+00
  0.00000000E+00  0.00000000E+00  0.00000000E+00
  0.00000000E+00  0.00000000E+00  0.00000000E+00
  0.00000000E+00  0.00000000E+00  0.00000000E+00
  0.00000000E+00  0.00000000E+00  0.00000000E+00
  0.00000000E+00  0.00000000E+00  0.00000000E+00
  0.00000000E+00  0.00000000E+00  0.00000000E+00
  0.00000000E+00  0.00000000E+00  0.00000000E+00
  0.00000000E+00  0.00000000E+00  0.00000000E+00
  0.00000000E+00  0.00000000E+00  0.00000000E+00
  0.00000000E+00  0.00000000E+00  0.00000000E+00
  0.00000000E+00  0.00000000E+00  0.00000000E+00
  0.00000000E+00  0.00000000E+00  0.00000000E+00
  0.00000000E+00  0.00000000E+00  0.00000000E+00
  0.00000000E+00  0.00000000E+00  0.00000000E+00
  0.00000000E+00  0.00000000E+00  0.00000000E+00
  0.00000000E+00  0.00000000E+00  0.00000000E+00
  0.00000000E+00  0.00000000E+00  0.00000000E+00
  0.00000000E+00  0.00000000E+00  0.00000000E+00
  0.00000000E+00  0.00000000E+00  0.00000000E+00
  0.00000000E+00  0.00000000E+00  0.00000000E+00
  0.00000000E+00  0.00000000E+00  0.00000000E+00
  0.00000000E+00  0.00000000E+00  0.00000000E+00
  0.00000000E+00  0.00000000E+00  0.00000000E+00
  0.00000000E+00  0.00000000E+00  0.00000000E+00
