Pt   H                                  
   1.00000000000000     
    11.2227001190000006    0.0000000000000000    0.0000000000000000
     5.6113500595000003    9.7191434021000003    0.0000000000000000
     0.0000000000000000    0.0000000000000000   22.0000000000000000
   Pt   H 
    80    16
Direct
  0.7845238543744936  0.8697182717387111  0.3271043834996787
  0.0346157269072800  0.8697172107066007  0.3271001966343238
  0.0345374607738590  0.6197764888238843  0.3271525106351922
  0.7843957113586629  0.8694163953725202  0.0222881422526257
  0.0347238607051181  0.8694299636979467  0.0222712836980801
  0.0346921989072628  0.6190893792964028  0.0222720696851319
  0.6176763305193761  0.2026745726554355  0.1257282907359529
  0.3679374511770034  0.9526400248832165  0.1253528400742468
  0.0347441669978179  0.3694701482812446  0.3267005266255646
  0.0344977723830093  0.3693060239451686  0.0220729964257751
  0.8677038689595786  0.2028483517480186  0.1255071839680526
  0.9510899330440313  0.5365081455541065  0.2254761183744287
  0.2846798903408102  0.1199969490386768  0.3270997183232951
  0.5346008337896292  0.6193027866464224  0.3272572247000496
  0.2851999509692377  0.3698428290989008  0.3271931690325409
  0.2844598104401033  0.1190696599056890  0.0222762589537618
  0.5346068801433218  0.6191327231642064  0.0221836790590367
  0.2846957708512401  0.3690529358599525  0.0221603607543614
  0.6175565531328259  0.9530796055147214  0.1254604464356076
  0.7013676874552203  0.7861960308832858  0.2254436638457082
  0.8680104091336545  0.7029451048616285  0.1253642212381771
  0.6177537609999493  0.4527413503492431  0.1256749418867330
  0.2846023336834602  0.8697895500021827  0.3269502208708143
  0.2844423212322433  0.8692423786577488  0.0220543442175467
  0.6179666705321322  0.7028690786558781  0.1253434207705636
  0.2013753020694764  0.0364568738203963  0.2256573815808086
  0.8679911642901601  0.9528104261938772  0.4331191859657305
  0.1175529127837849  0.4532978966765909  0.4329170431335159
  0.1180470179712892  0.9530571167256682  0.4329134713882175
  0.8667952674294523  0.4543250343065356  0.4315505173950784
  0.3680110756137249  0.9530792574007879  0.4329608513597090
  0.8682656554126347  0.2035231192674420  0.4329737229120471
  0.1178015314337424  0.2033658520422728  0.4330166960654311
  0.6178954602429302  0.9526348768621088  0.4328788661445101
  0.8672844862226659  0.7025974192159413  0.4332904496674064
  0.3679592851284199  0.2033565310650083  0.4330376019410808
  0.3686053156302065  0.7031114286434963  0.4331303438995532
  0.6213270999402886  0.4561463371895199  0.4370186608958590
  0.1177515376772202  0.7031917567558439  0.4332018388986269
  0.6181597784243213  0.2029002918202442  0.4330138195767760
  0.5359658244140914  0.3711957752867946  0.3289455420363351
  0.5344643247573138  0.3692144501895956  0.0223742401247575
  0.5345190934515115  0.1203311025881023  0.3271383974603689
  0.5343671065221787  0.1194159393846817  0.0221457084579038
  0.8679352030001565  0.4528951123497253  0.1253629323834456
  0.1180994897177882  0.4525344015094585  0.1254704697073374
  0.0347291383349216  0.1197449026579186  0.3269441117655291
  0.0345640961763747  0.1191566380201129  0.0220569330970224
  0.1180206143409939  0.9529851865486920  0.1255686911609226
  0.3680156293099515  0.4535762756059928  0.4332434548888286
  0.4514347721706104  0.5358487095358605  0.2261223426765633
  0.6189864459128135  0.7019405796950272  0.4315203203992677
  0.3678063912315327  0.2028060672059587  0.1255801333691539
  0.1177280556579026  0.2029013926011009  0.1253767118368234
  0.9512286074325037  0.7863506605219114  0.2256611129842198
  0.7847229247025234  0.6200373410696062  0.3266824974339782
  0.2844580995741575  0.6198018848809345  0.3273698308700485
  0.7843831223722219  0.6191162662469125  0.0221171779188007
  0.2849117344577340  0.6190469900202252  0.0223308990367983
  0.3678676382138144  0.7026359294724797  0.1254712067011166
  0.3677164406905734  0.4525904469559113  0.1257430837193423
  0.2010447079637181  0.2865561980407670  0.2257743792409279
  0.7840401470878330  0.3699020265202143  0.3273079574783505
  0.7844442819444301  0.3693264710258209  0.0222129525663300
  0.9511137558901879  0.0363530141916236  0.2256447337382643
  0.4511138196192550  0.7860561999659590  0.2253634064580423
  0.7011426248119048  0.5362527026935140  0.2256467875124837
  0.2012908189736107  0.7861373130300039  0.2256398282235343
  0.4513614897232717  0.0361823079025983  0.2257302880797573
  0.1179761110447487  0.7028420739093709  0.1254907401755627
  0.7013604369874478  0.0362785872294499  0.2257640946800849
  0.7846665976408382  0.1195457598470931  0.3273160748709268
  0.5341455968744011  0.8699878724672339  0.3266495890233895
  0.7843965768090502  0.1196278464241598  0.0223495085532890
  0.5345887707979528  0.8692231280651349  0.0220454132192055
  0.2011544197257780  0.5364933316556559  0.2257850167052752
  0.9509292536608057  0.2862695884405733  0.2254128349387705
  0.8679159359628338  0.9529203910023051  0.1254964407810862
  0.7007397680447339  0.2865601151957096  0.2261418682509549
  0.4514355672259764  0.2865307232310111  0.2260041319119372
  0.4516852986008933  0.5337645665149463  0.4745156645366812
  0.6651734328487228  0.4992488604306264  0.4978057659802331
  0.2014666524726567  0.7862335175421421  0.4737472247137968
  0.4528354427778500  0.7869591901985669  0.4731997600805475
  0.7006449816197711  0.7848189553390152  0.4736644242622087
  0.9510075122929751  0.7862812113067864  0.4738773283008691
  0.2010807192694681  0.5365680130355954  0.4739397416248086
  0.9496984485458605  0.5360306228848609  0.4736832107663320
  0.2012413179924470  0.2866346613468677  0.4738161872546346
  0.4513841725645233  0.2870491761371552  0.4738995700714007
  0.7005972416496186  0.2833011613775696  0.4738604523809063
  0.9515163547235195  0.2884222227576245  0.4732069533524229
  0.2009925667943867  0.0363769375598524  0.4737103695193904
  0.4512410881237335  0.0366072394659847  0.4737667700621033
  0.7012481256552090  0.0359800780619087  0.4738199796531083
  0.9513078151076545  0.0363189967547683  0.4736623225703946
 
  0.00000000E+00  0.00000000E+00  0.00000000E+00
  0.00000000E+00  0.00000000E+00  0.00000000E+00
  0.00000000E+00  0.00000000E+00  0.00000000E+00
  0.00000000E+00  0.00000000E+00  0.00000000E+00
  0.00000000E+00  0.00000000E+00  0.00000000E+00
  0.00000000E+00  0.00000000E+00  0.00000000E+00
  0.00000000E+00  0.00000000E+00  0.00000000E+00
  0.00000000E+00  0.00000000E+00  0.00000000E+00
  0.00000000E+00  0.00000000E+00  0.00000000E+00
  0.00000000E+00  0.00000000E+00  0.00000000E+00
  0.00000000E+00  0.00000000E+00  0.00000000E+00
  0.00000000E+00  0.00000000E+00  0.00000000E+00
  0.00000000E+00  0.00000000E+00  0.00000000E+00
  0.00000000E+00  0.00000000E+00  0.00000000E+00
  0.00000000E+00  0.00000000E+00  0.00000000E+00
  0.00000000E+00  0.00000000E+00  0.00000000E+00
  0.00000000E+00  0.00000000E+00  0.00000000E+00
  0.00000000E+00  0.00000000E+00  0.00000000E+00
  0.00000000E+00  0.00000000E+00  0.00000000E+00
  0.00000000E+00  0.00000000E+00  0.00000000E+00
  0.00000000E+00  0.00000000E+00  0.00000000E+00
  0.00000000E+00  0.00000000E+00  0.00000000E+00
  0.00000000E+00  0.00000000E+00  0.00000000E+00
  0.00000000E+00  0.00000000E+00  0.00000000E+00
  0.00000000E+00  0.00000000E+00  0.00000000E+00
  0.00000000E+00  0.00000000E+00  0.00000000E+00
  0.00000000E+00  0.00000000E+00  0.00000000E+00
  0.00000000E+00  0.00000000E+00  0.00000000E+00
  0.00000000E+00  0.00000000E+00  0.00000000E+00
  0.00000000E+00  0.00000000E+00  0.00000000E+00
  0.00000000E+00  0.00000000E+00  0.00000000E+00
  0.00000000E+00  0.00000000E+00  0.00000000E+00
  0.00000000E+00  0.00000000E+00  0.00000000E+00
  0.00000000E+00  0.00000000E+00  0.00000000E+00
  0.00000000E+00  0.00000000E+00  0.00000000E+00
  0.00000000E+00  0.00000000E+00  0.00000000E+00
  0.00000000E+00  0.00000000E+00  0.00000000E+00
  0.00000000E+00  0.00000000E+00  0.00000000E+00
  0.00000000E+00  0.00000000E+00  0.00000000E+00
  0.00000000E+00  0.00000000E+00  0.00000000E+00
  0.00000000E+00  0.00000000E+00  0.00000000E+00
  0.00000000E+00  0.00000000E+00  0.00000000E+00
  0.00000000E+00  0.00000000E+00  0.00000000E+00
  0.00000000E+00  0.00000000E+00  0.00000000E+00
  0.00000000E+00  0.00000000E+00  0.00000000E+00
  0.00000000E+00  0.00000000E+00  0.00000000E+00
  0.00000000E+00  0.00000000E+00  0.00000000E+00
  0.00000000E+00  0.00000000E+00  0.00000000E+00
  0.00000000E+00  0.00000000E+00  0.00000000E+00
  0.00000000E+00  0.00000000E+00  0.00000000E+00
  0.00000000E+00  0.00000000E+00  0.00000000E+00
  0.00000000E+00  0.00000000E+00  0.00000000E+00
  0.00000000E+00  0.00000000E+00  0.00000000E+00
  0.00000000E+00  0.00000000E+00  0.00000000E+00
  0.00000000E+00  0.00000000E+00  0.00000000E+00
  0.00000000E+00  0.00000000E+00  0.00000000E+00
  0.00000000E+00  0.00000000E+00  0.00000000E+00
  0.00000000E+00  0.00000000E+00  0.00000000E+00
  0.00000000E+00  0.00000000E+00  0.00000000E+00
  0.00000000E+00  0.00000000E+00  0.00000000E+00
  0.00000000E+00  0.00000000E+00  0.00000000E+00
  0.00000000E+00  0.00000000E+00  0.00000000E+00
  0.00000000E+00  0.00000000E+00  0.00000000E+00
  0.00000000E+00  0.00000000E+00  0.00000000E+00
  0.00000000E+00  0.00000000E+00  0.00000000E+00
  0.00000000E+00  0.00000000E+00  0.00000000E+00
  0.00000000E+00  0.00000000E+00  0.00000000E+00
  0.00000000E+00  0.00000000E+00  0.00000000E+00
  0.00000000E+00  0.00000000E+00  0.00000000E+00
  0.00000000E+00  0.00000000E+00  0.00000000E+00
  0.00000000E+00  0.00000000E+00  0.00000000E+00
  0.00000000E+00  0.00000000E+00  0.00000000E+00
  0.00000000E+00  0.00000000E+00  0.00000000E+00
  0.00000000E+00  0.00000000E+00  0.00000000E+00
  0.00000000E+00  0.00000000E+00  0.00000000E+00
  0.00000000E+00  0.00000000E+00  0.00000000E+00
  0.00000000E+00  0.00000000E+00  0.00000000E+00
  0.00000000E+00  0.00000000E+00  0.00000000E+00
  0.00000000E+00  0.00000000E+00  0.00000000E+00
  0.00000000E+00  0.00000000E+00  0.00000000E+00
  0.00000000E+00  0.00000000E+00  0.00000000E+00
  0.00000000E+00  0.00000000E+00  0.00000000E+00
  0.00000000E+00  0.00000000E+00  0.00000000E+00
  0.00000000E+00  0.00000000E+00  0.00000000E+00
  0.00000000E+00  0.00000000E+00  0.00000000E+00
  0.00000000E+00  0.00000000E+00  0.00000000E+00
  0.00000000E+00  0.00000000E+00  0.00000000E+00
  0.00000000E+00  0.00000000E+00  0.00000000E+00
  0.00000000E+00  0.00000000E+00  0.00000000E+00
  0.00000000E+00  0.00000000E+00  0.00000000E+00
  0.00000000E+00  0.00000000E+00  0.00000000E+00
  0.00000000E+00  0.00000000E+00  0.00000000E+00
  0.00000000E+00  0.00000000E+00  0.00000000E+00
  0.00000000E+00  0.00000000E+00  0.00000000E+00
  0.00000000E+00  0.00000000E+00  0.00000000E+00
  0.00000000E+00  0.00000000E+00  0.00000000E+00
