Pt111                                   
   1.00000000000000     
    11.2227001190000006    0.0000000000000000    0.0000000000000000
     5.6113500595000003    9.7191434021000003    0.0000000000000000
     0.0000000000000000    0.0000000000000000   22.0000000000000000
   Pt   H 
    80     2
Direct
  0.7847645078093070  0.8692109055932057  0.3269099030837314
  0.0346505422732755  0.8693210791143586  0.3270653926059036
  0.0346593397428230  0.6192492654588861  0.3270488254560702
  0.7865279358316289  0.8681218984399185  0.0230186636286580
  0.0365892092653358  0.8681264262551549  0.0230600770061734
  0.0365740833818425  0.6180192765835041  0.0230766070799073
  0.6191005257314746  0.2019986185390020  0.1261462161332626
  0.3692613597577550  0.9517191119252234  0.1261159131544350
  0.0348347802846789  0.3692464695385565  0.3268907943306040
  0.0366681273710313  0.3679866200393855  0.0230478876168815
  0.8690175056391344  0.2019718345626271  0.1261148867296620
  0.9518520698635683  0.5357127416501478  0.2265259392629843
  0.2848041969222338  0.1192793210480655  0.3269051373551050
  0.5349253720117902  0.6193291735376211  0.3269445702879225
  0.2847142131361833  0.3691484578179760  0.3270637013161305
  0.2864371967577070  0.1181469625332261  0.0230659732321086
  0.5365372356958547  0.6180608275380141  0.0231275782763909
  0.2865146800636174  0.3680430210704302  0.0230897426275272
  0.6191981466266552  0.9518502688916971  0.1260762196497417
  0.7019582063383542  0.7855458707990561  0.2265410643053104
  0.8691724073921774  0.7019081991270826  0.1260587084382746
  0.6189887871166603  0.4519569540834406  0.1262427230733147
  0.2847450141155604  0.8693524126296474  0.3270838729412338
  0.2865116091886123  0.8681449356199945  0.0230774485760775
  0.6190723348116562  0.7018502613199163  0.1261370814401943
  0.2020582418215737  0.0354255510153336  0.2265340462299094
  0.8676481867669390  0.9527934436504701  0.4300010239953524
  0.1178826668006174  0.4527428511285770  0.4300167912910706
  0.1176911685264237  0.9527954248888626  0.4300205593126217
  0.8675353612178135  0.4528212413563799  0.4300334956723951
  0.3676959913063482  0.9526528498640005  0.4300394814574503
  0.8676502306740659  0.2028801469167038  0.4300251194528820
  0.1176689432496998  0.2028271374206955  0.4299210036552145
  0.6176247052916352  0.9528541736248424  0.4299804852261375
  0.8677934097953578  0.7027674889486532  0.4299928563377578
  0.3676471104060905  0.2030645767301513  0.4300298166453916
  0.3673729761155334  0.7029692356462252  0.4299382874874793
  0.6178168347069739  0.4525030082248483  0.4299153810882591
  0.1176568503215358  0.7027659129273678  0.4302126761172376
  0.6176458899151732  0.2027689470313004  0.4302235612734349
  0.5348514234925226  0.3689853309581409  0.3269851238232055
  0.5365490445514545  0.3681337957108714  0.0231334248641567
  0.5348758967879768  0.1190483853020995  0.3270461096993155
  0.5365223212664026  0.1180841654585971  0.0230637770620000
  0.8690353776092949  0.4519433724018034  0.1260998875070417
  0.1192406545653010  0.4519803233065560  0.1261378215491383
  0.0348004650283570  0.1191988673228537  0.3268754520895435
  0.0366523957731817  0.1181683003772788  0.0230724783387475
  0.1192603632308971  0.9516906360934769  0.1261257486551268
  0.3676891676879363  0.4527282056489357  0.4301542801976713
  0.4518962212582366  0.5356290822463183  0.2267136109316214
  0.6177347757425024  0.7029202795432169  0.4300471885734639
  0.3693084507053973  0.2019323995482523  0.1261258219712769
  0.1191400490624384  0.2019025265055223  0.1261704854575915
  0.9519486219184978  0.7856084533091838  0.2265462619824492
  0.7849289728436475  0.6192424482825629  0.3270460001418250
  0.2845769442653732  0.6192316517226891  0.3270023023419971
  0.7865782225861415  0.6180139280228039  0.0230749739524328
  0.2865743793063988  0.6180737355647216  0.0231567174650633
  0.3692580286538886  0.7017220673950190  0.1262325936535271
  0.3692555099434793  0.4519193951365642  0.1262472722807401
  0.2020125500818767  0.2856280246892129  0.2264946425939882
  0.7849168162274446  0.3691999891257148  0.3270665892666758
  0.7865724234693218  0.3680644347323229  0.0230720189861251
  0.9518608064717549  0.0355753039650678  0.2265303609490715
  0.4518696462792261  0.7856930092068146  0.2265944361539112
  0.7020295392966951  0.5355573191550265  0.2265854842340823
  0.2018840488375364  0.7857060227913217  0.2266211051068171
  0.4519946507570963  0.0355879044799576  0.2265233109018611
  0.1192516106627425  0.7018379663017803  0.1261571198171473
  0.7019488873359180  0.0356094424646491  0.2265493377829739
  0.7848624543060087  0.1190991055948574  0.3270784629340862
  0.5347890769874092  0.8694109176888395  0.3270047075760500
  0.7866483094134902  0.1180675955996773  0.0230741949207328
  0.5365269490951858  0.8681067706757919  0.0230574754755484
  0.2019001680004555  0.5355435786397575  0.2266211553492875
  0.9517536695840064  0.2857165092111981  0.2265205022714452
  0.8691940703221294  0.9518483909753980  0.1260573426495650
  0.7020668586607987  0.2855141406992612  0.2266100594725820
  0.4518728597825370  0.2855650513302959  0.2266229166552409
  0.4729468488525497  0.5583493956835444  0.5587530264251135
  0.5116012252518012  0.5971509530414507  0.5596789510895459
 
  0.00000000E+00  0.00000000E+00  0.00000000E+00
  0.00000000E+00  0.00000000E+00  0.00000000E+00
  0.00000000E+00  0.00000000E+00  0.00000000E+00
  0.00000000E+00  0.00000000E+00  0.00000000E+00
  0.00000000E+00  0.00000000E+00  0.00000000E+00
  0.00000000E+00  0.00000000E+00  0.00000000E+00
  0.00000000E+00  0.00000000E+00  0.00000000E+00
  0.00000000E+00  0.00000000E+00  0.00000000E+00
  0.00000000E+00  0.00000000E+00  0.00000000E+00
  0.00000000E+00  0.00000000E+00  0.00000000E+00
  0.00000000E+00  0.00000000E+00  0.00000000E+00
  0.00000000E+00  0.00000000E+00  0.00000000E+00
  0.00000000E+00  0.00000000E+00  0.00000000E+00
  0.00000000E+00  0.00000000E+00  0.00000000E+00
  0.00000000E+00  0.00000000E+00  0.00000000E+00
  0.00000000E+00  0.00000000E+00  0.00000000E+00
  0.00000000E+00  0.00000000E+00  0.00000000E+00
  0.00000000E+00  0.00000000E+00  0.00000000E+00
  0.00000000E+00  0.00000000E+00  0.00000000E+00
  0.00000000E+00  0.00000000E+00  0.00000000E+00
  0.00000000E+00  0.00000000E+00  0.00000000E+00
  0.00000000E+00  0.00000000E+00  0.00000000E+00
  0.00000000E+00  0.00000000E+00  0.00000000E+00
  0.00000000E+00  0.00000000E+00  0.00000000E+00
  0.00000000E+00  0.00000000E+00  0.00000000E+00
  0.00000000E+00  0.00000000E+00  0.00000000E+00
  0.00000000E+00  0.00000000E+00  0.00000000E+00
  0.00000000E+00  0.00000000E+00  0.00000000E+00
  0.00000000E+00  0.00000000E+00  0.00000000E+00
  0.00000000E+00  0.00000000E+00  0.00000000E+00
  0.00000000E+00  0.00000000E+00  0.00000000E+00
  0.00000000E+00  0.00000000E+00  0.00000000E+00
  0.00000000E+00  0.00000000E+00  0.00000000E+00
  0.00000000E+00  0.00000000E+00  0.00000000E+00
  0.00000000E+00  0.00000000E+00  0.00000000E+00
  0.00000000E+00  0.00000000E+00  0.00000000E+00
  0.00000000E+00  0.00000000E+00  0.00000000E+00
  0.00000000E+00  0.00000000E+00  0.00000000E+00
  0.00000000E+00  0.00000000E+00  0.00000000E+00
  0.00000000E+00  0.00000000E+00  0.00000000E+00
  0.00000000E+00  0.00000000E+00  0.00000000E+00
  0.00000000E+00  0.00000000E+00  0.00000000E+00
  0.00000000E+00  0.00000000E+00  0.00000000E+00
  0.00000000E+00  0.00000000E+00  0.00000000E+00
  0.00000000E+00  0.00000000E+00  0.00000000E+00
  0.00000000E+00  0.00000000E+00  0.00000000E+00
  0.00000000E+00  0.00000000E+00  0.00000000E+00
  0.00000000E+00  0.00000000E+00  0.00000000E+00
  0.00000000E+00  0.00000000E+00  0.00000000E+00
  0.00000000E+00  0.00000000E+00  0.00000000E+00
  0.00000000E+00  0.00000000E+00  0.00000000E+00
  0.00000000E+00  0.00000000E+00  0.00000000E+00
  0.00000000E+00  0.00000000E+00  0.00000000E+00
  0.00000000E+00  0.00000000E+00  0.00000000E+00
  0.00000000E+00  0.00000000E+00  0.00000000E+00
  0.00000000E+00  0.00000000E+00  0.00000000E+00
  0.00000000E+00  0.00000000E+00  0.00000000E+00
  0.00000000E+00  0.00000000E+00  0.00000000E+00
  0.00000000E+00  0.00000000E+00  0.00000000E+00
  0.00000000E+00  0.00000000E+00  0.00000000E+00
  0.00000000E+00  0.00000000E+00  0.00000000E+00
  0.00000000E+00  0.00000000E+00  0.00000000E+00
  0.00000000E+00  0.00000000E+00  0.00000000E+00
  0.00000000E+00  0.00000000E+00  0.00000000E+00
  0.00000000E+00  0.00000000E+00  0.00000000E+00
  0.00000000E+00  0.00000000E+00  0.00000000E+00
  0.00000000E+00  0.00000000E+00  0.00000000E+00
  0.00000000E+00  0.00000000E+00  0.00000000E+00
  0.00000000E+00  0.00000000E+00  0.00000000E+00
  0.00000000E+00  0.00000000E+00  0.00000000E+00
  0.00000000E+00  0.00000000E+00  0.00000000E+00
  0.00000000E+00  0.00000000E+00  0.00000000E+00
  0.00000000E+00  0.00000000E+00  0.00000000E+00
  0.00000000E+00  0.00000000E+00  0.00000000E+00
  0.00000000E+00  0.00000000E+00  0.00000000E+00
  0.00000000E+00  0.00000000E+00  0.00000000E+00
  0.00000000E+00  0.00000000E+00  0.00000000E+00
  0.00000000E+00  0.00000000E+00  0.00000000E+00
  0.00000000E+00  0.00000000E+00  0.00000000E+00
  0.00000000E+00  0.00000000E+00  0.00000000E+00
  0.00000000E+00  0.00000000E+00  0.00000000E+00
  0.00000000E+00  0.00000000E+00  0.00000000E+00
