11.06                                   
   1.00000000000000     
    11.0600004195999997    0.0000000000000000    0.0000000000000000
     5.5300002097999998    9.5782413293000008    0.0000000000000000
     0.0000000000000000    0.0000000000000000   22.0000000000000000
   Pt   Fe   Co   Cu   Ni   H 
    32    13    10    13    12     1
Selective dynamics
Direct
  0.7878454884949377  0.8805337272929563  0.3105633608681799   F   F   F
  0.0440889030327085  0.8812476064869514  0.3067539730090942   F   F   F
  0.2797951338156537  0.3776939050735280  0.3148239297999993   F   F   F
  0.8763948721617183  0.9640074193322477  0.4116399003681792   F   F   F
  0.1178106387120366  0.4670582875809544  0.4173088073954574   F   F   F
  0.1252705814270598  0.9571759698259754  0.4132526041772735   F   F   F
  0.8778269013909608  0.4556243294737428  0.4182057649590902   F   F   F
  0.3827469521919085  0.9557491975480445  0.4157838849454549   F   F   F
  0.8718500792018204  0.2124022422129457  0.4115450272590877   F   F   F
  0.1281151954869912  0.2155864152308737  0.4161957043454549   F   F   F
  0.6282556004776012  0.9576978581693751  0.4142067019136348   F   F   F
  0.8754065479304103  0.7129524069424420  0.4168097828363670   F   F   F
  0.3796106197409941  0.2075572855758594  0.4160410878909104   F   F   F
  0.3804981761726580  0.7073275492000093  0.4147179044500007   F   F   F
  0.6294961742417726  0.4619033732806699  0.4155368866545430   F   F   F
  0.1244849235273549  0.7104734434893700  0.4157351616454577   F   F   F
  0.6274798892142712  0.2080629071334599  0.4134864100545457   F   F   F
  0.5472412284007291  0.3774844910975119  0.3147216949136364   F   F   F
  0.5340828022965738  0.1258784058208846  0.3108598094954544   F   F   F
  0.5517907035671499  0.1237414160858918  0.0522380319954578   F   F   F
  0.1166403069998836  0.4478305367060003  0.1269050428999989   F   F   F
  0.0493467429237882  0.1346427654265696  0.3118680679681844   F   F   F
  0.0318634206626527  0.1321532286754916  0.0391436539772698   F   F   F
  0.1322902336844294  0.9574246671199944  0.1357499056681846   F   F   F
  0.3727642309017796  0.4608009073125459  0.4166131046045436   F   F   F
  0.4583302334576800  0.5505736616875794  0.2196229883772745   F   F   F
  0.6259216064714650  0.7090481330977596  0.4160694498954527   F   F   F
  0.9547310550067607  0.7790527017495137  0.2153140473863644   F   F   F
  0.8002069306792876  0.6233798881257044  0.3166452812999978   F   F   F
  0.2874774073358068  0.6303709528731645  0.3137660913272740   F   F   F
  0.1973038588486915  0.2737670855169014  0.2256946547136351   F   F   F
  0.7039440396782410  0.5536854017216086  0.2217252195590902   F   F   F
  0.0412127913999782  0.6339556180867021  0.3182878212136373   F   F   F
  0.7942667551087155  0.8599541229665348  0.0553496235818187   F   F   F
  0.0504003372988748  0.8628103274157084  0.0484924134499991   F   F   F
  0.0458392209568999  0.6458845459631064  0.0531647909772701   F   F   F
  0.6274855346454800  0.2338042520028765  0.1340709094590906   F   F   F
  0.3830354864116359  0.9521874920608795  0.1342572065863621   F   F   F
  0.0360173183972776  0.3844895870429212  0.3205334288136399   F   F   F
  0.0087826589867177  0.3763095084036081  0.0435932914227237   F   F   F
  0.8682239942029994  0.2198895605560978  0.1320713060818193   F   F   F
  0.9576874342144350  0.5384780366853548  0.2234689155318179   F   F   F
  0.3005784131722677  0.1137533390463901  0.3198246118000014   F   F   F
  0.5425124729978066  0.6262095687390996  0.3197880455954518   F   F   F
  0.2911501622544819  0.1122415390507356  0.0494274354681821   F   F   F
  0.5501148902293878  0.6255569737600126  0.0488264706954524   F   F   F
  0.3085145004429961  0.3835596446251230  0.0505624604727259   F   F   F
  0.6245341976642393  0.9433204780778155  0.1374917836227283   F   F   F
  0.7074861992497574  0.7893700323013846  0.2208180135954549   F   F   F
  0.8571241580711089  0.6893234213678454  0.1325387087818157   F   F   F
  0.6277723694778672  0.4599996828668367  0.1303307695227289   F   F   F
  0.2990802814422580  0.8744876260193521  0.3179934718727253   F   F   F
  0.3052197422800944  0.8770331463671681  0.0463809798954529   F   F   F
  0.6182318874293458  0.7191778517970846  0.1308751241863604   F   F   F
  0.2334164172359081  0.0220315628041732  0.2282939212136341   F   F   F
  0.5422124353392448  0.3830619451481425  0.0408535510409109   F   F   F
  0.3754399652261782  0.2045931610018457  0.1386052775909121   F   F   F
  0.1558647781371434  0.7043630098421261  0.1400214925545455   F   F   F
  0.7020978323690130  0.0565474128996044  0.2199129117681835   F   F   F
  0.7933685685996039  0.1295655900737955  0.3126886952136374   F   F   F
  0.5431431483416702  0.8705283565463660  0.3162162008409126   F   F   F
  0.7897065490966995  0.1294421438106141  0.0418056654227286   F   F   F
  0.5441043329389430  0.8775533958188859  0.0423234264090908   F   F   F
  0.2084291012041177  0.5357474079612743  0.2217233592454519   F   F   F
  0.9462833612890051  0.3039384823176903  0.2236098237454556   F   F   F
  0.8690563302489380  0.9770500116104230  0.1342576139045448   F   F   F
  0.7171106193404952  0.2969876676105727  0.2257845762136341   F   F   F
  0.4563820814942758  0.2976701910170334  0.2219475371090880   F   F   F
  0.8693529692367647  0.4543744225557163  0.1311308469772712   F   F   F
  0.1220030719522569  0.2018087212614930  0.1324010706863632   F   F   F
  0.7829019622226241  0.6202837550590488  0.0451729013090940   F   F   F
  0.2978972113281415  0.6241254916404273  0.0494225953454546   F   F   F
  0.3860904589733565  0.7174036682893004  0.1312306088954571   F   F   F
  0.3884240254738813  0.4538593918908589  0.1321607624818171   F   F   F
  0.7922937801538978  0.3853093715033538  0.3185134626409081   F   F   F
  0.7861851256519614  0.3745117542013503  0.0441340194818167   F   F   F
  0.9513544597592940  0.0659301343836702  0.2213817175772732   F   F   F
  0.4635982856892369  0.7951887142894378  0.2264081887863654   F   F   F
  0.2310835121427104  0.7963463801926807  0.2255315960954576   F   F   F
  0.4612243376662803  0.0241249826618102  0.2248505513227244   F   F   F
  0.2142517911735666  0.0288952318369127  0.4537826552000007   T   T   T
 
  0.00000000E+00  0.00000000E+00  0.00000000E+00
  0.00000000E+00  0.00000000E+00  0.00000000E+00
  0.00000000E+00  0.00000000E+00  0.00000000E+00
  0.00000000E+00  0.00000000E+00  0.00000000E+00
  0.00000000E+00  0.00000000E+00  0.00000000E+00
  0.00000000E+00  0.00000000E+00  0.00000000E+00
  0.00000000E+00  0.00000000E+00  0.00000000E+00
  0.00000000E+00  0.00000000E+00  0.00000000E+00
  0.00000000E+00  0.00000000E+00  0.00000000E+00
  0.00000000E+00  0.00000000E+00  0.00000000E+00
  0.00000000E+00  0.00000000E+00  0.00000000E+00
  0.00000000E+00  0.00000000E+00  0.00000000E+00
  0.00000000E+00  0.00000000E+00  0.00000000E+00
  0.00000000E+00  0.00000000E+00  0.00000000E+00
  0.00000000E+00  0.00000000E+00  0.00000000E+00
  0.00000000E+00  0.00000000E+00  0.00000000E+00
  0.00000000E+00  0.00000000E+00  0.00000000E+00
  0.00000000E+00  0.00000000E+00  0.00000000E+00
  0.00000000E+00  0.00000000E+00  0.00000000E+00
  0.00000000E+00  0.00000000E+00  0.00000000E+00
  0.00000000E+00  0.00000000E+00  0.00000000E+00
  0.00000000E+00  0.00000000E+00  0.00000000E+00
  0.00000000E+00  0.00000000E+00  0.00000000E+00
  0.00000000E+00  0.00000000E+00  0.00000000E+00
  0.00000000E+00  0.00000000E+00  0.00000000E+00
  0.00000000E+00  0.00000000E+00  0.00000000E+00
  0.00000000E+00  0.00000000E+00  0.00000000E+00
  0.00000000E+00  0.00000000E+00  0.00000000E+00
  0.00000000E+00  0.00000000E+00  0.00000000E+00
  0.00000000E+00  0.00000000E+00  0.00000000E+00
  0.00000000E+00  0.00000000E+00  0.00000000E+00
  0.00000000E+00  0.00000000E+00  0.00000000E+00
  0.00000000E+00  0.00000000E+00  0.00000000E+00
  0.00000000E+00  0.00000000E+00  0.00000000E+00
  0.00000000E+00  0.00000000E+00  0.00000000E+00
  0.00000000E+00  0.00000000E+00  0.00000000E+00
  0.00000000E+00  0.00000000E+00  0.00000000E+00
  0.00000000E+00  0.00000000E+00  0.00000000E+00
  0.00000000E+00  0.00000000E+00  0.00000000E+00
  0.00000000E+00  0.00000000E+00  0.00000000E+00
  0.00000000E+00  0.00000000E+00  0.00000000E+00
  0.00000000E+00  0.00000000E+00  0.00000000E+00
  0.00000000E+00  0.00000000E+00  0.00000000E+00
  0.00000000E+00  0.00000000E+00  0.00000000E+00
  0.00000000E+00  0.00000000E+00  0.00000000E+00
  0.00000000E+00  0.00000000E+00  0.00000000E+00
  0.00000000E+00  0.00000000E+00  0.00000000E+00
  0.00000000E+00  0.00000000E+00  0.00000000E+00
  0.00000000E+00  0.00000000E+00  0.00000000E+00
  0.00000000E+00  0.00000000E+00  0.00000000E+00
  0.00000000E+00  0.00000000E+00  0.00000000E+00
  0.00000000E+00  0.00000000E+00  0.00000000E+00
  0.00000000E+00  0.00000000E+00  0.00000000E+00
  0.00000000E+00  0.00000000E+00  0.00000000E+00
  0.00000000E+00  0.00000000E+00  0.00000000E+00
  0.00000000E+00  0.00000000E+00  0.00000000E+00
  0.00000000E+00  0.00000000E+00  0.00000000E+00
  0.00000000E+00  0.00000000E+00  0.00000000E+00
  0.00000000E+00  0.00000000E+00  0.00000000E+00
  0.00000000E+00  0.00000000E+00  0.00000000E+00
  0.00000000E+00  0.00000000E+00  0.00000000E+00
  0.00000000E+00  0.00000000E+00  0.00000000E+00
  0.00000000E+00  0.00000000E+00  0.00000000E+00
  0.00000000E+00  0.00000000E+00  0.00000000E+00
  0.00000000E+00  0.00000000E+00  0.00000000E+00
  0.00000000E+00  0.00000000E+00  0.00000000E+00
  0.00000000E+00  0.00000000E+00  0.00000000E+00
  0.00000000E+00  0.00000000E+00  0.00000000E+00
  0.00000000E+00  0.00000000E+00  0.00000000E+00
  0.00000000E+00  0.00000000E+00  0.00000000E+00
  0.00000000E+00  0.00000000E+00  0.00000000E+00
  0.00000000E+00  0.00000000E+00  0.00000000E+00
  0.00000000E+00  0.00000000E+00  0.00000000E+00
  0.00000000E+00  0.00000000E+00  0.00000000E+00
  0.00000000E+00  0.00000000E+00  0.00000000E+00
  0.00000000E+00  0.00000000E+00  0.00000000E+00
  0.00000000E+00  0.00000000E+00  0.00000000E+00
  0.00000000E+00  0.00000000E+00  0.00000000E+00
  0.00000000E+00  0.00000000E+00  0.00000000E+00
  0.00000000E+00  0.00000000E+00  0.00000000E+00
  0.00000000E+00  0.00000000E+00  0.00000000E+00
