11.26                                   
   1.00000000000000     
    11.2227001190000006    0.0000000000000000    0.0000000000000000
     5.6113500595000003    9.7191434021000003    0.0000000000000000
     0.0000000000000000    0.0000000000000000   22.0000000000000000
   Pt   Fe   Co   Ni   H 
    32    16    15    17     1
Selective dynamics
Direct
  0.7834065481449181  0.8703707114264403  0.3042067868136922   T   T   T
  0.0294768106982901  0.8711595821505139  0.2995319983672389   T   T   T
  0.2785608654486863  0.3608381077240388  0.3108626589494031   T   T   T
  0.8706903946132127  0.9557723528221655  0.4062508733778123   T   T   T
  0.1155890762343174  0.4578344026914005  0.4124377347126220   T   T   T
  0.1266176788429036  0.9479325549417706  0.4025158871978274   T   T   T
  0.8642475528992092  0.4489713319488152  0.4134607727175471   T   T   T
  0.3749280913629387  0.9528114921604498  0.4161704954793158   T   T   T
  0.8710839172043374  0.1984415779605643  0.4055788382952166   T   T   T
  0.1253367556267038  0.1971996368113086  0.4126972645281816   T   T   T
  0.6235789796394363  0.9479862245407176  0.4133089316350395   T   T   T
  0.8717927874259670  0.7071478468457708  0.4109927687358987   T   T   T
  0.3737481515373894  0.2002335822104457  0.4150176636384553   T   T   T
  0.3684105039846051  0.7012738282825115  0.4048686317463563   T   T   T
  0.6183598171879794  0.4554446398527235  0.4078466431763902   T   T   T
  0.1162680018370217  0.7040523897696674  0.4072990811581346   T   T   T
  0.6239438801462779  0.2033015837972103  0.4110291791746283   T   T   T
  0.5385474696556403  0.3647360371997885  0.3072985436382337   T   T   T
  0.5381870639600196  0.1122858953691372  0.3131152534398322   T   T   T
  0.5375076487171242  0.1169073699596268  0.0531220763272700   F   F   F
  0.1060159474172693  0.4196903701841279  0.1184692797545424   F   F   F
  0.0485727156102923  0.1254874662534924  0.3063797780326550   T   T   T
  0.0245780338318511  0.1097680969569268  0.0430117810681807   F   F   F
  0.1169260853325511  0.9524257744669029  0.1460113291272762   F   F   F
  0.3698574940963035  0.4516907245645795  0.4090370761794100   T   T   T
  0.4507798513754153  0.5618345619141820  0.2220556187454577   F   F   F
  0.6198030804347261  0.7039904587247744  0.4124496376319329   T   T   T
  0.9486300860078885  0.7563834836835071  0.2065586565000004   F   F   F
  0.7982547219186001  0.6152576995979921  0.3127863408535226   T   T   T
  0.2679251983643116  0.6138350598441449  0.3056128255732083   T   T   T
  0.1912446586299481  0.2608944894209628  0.2240584526999996   F   F   F
  0.6997735942738998  0.5388438066433352  0.2217140734181839   F   F   F
  0.0333124483712178  0.6224777883672331  0.3111283377100133   T   T   T
  0.7908872107797080  0.8845713640095454  0.0590154774772742   F   F   F
  0.0431671302096959  0.8645701532281578  0.0570202552818202   F   F   F
  0.0421493158309616  0.6575489276883317  0.0841343607909124   F   F   F
  0.6242636984160299  0.2112047253214158  0.1379027481681803   F   F   F
  0.3765739752082027  0.9544076052521007  0.1361219543000018   F   F   F
  0.0282347150488948  0.3722501976474407  0.3184248614078641   T   T   T
  0.9829997705121372  0.3538927260355891  0.0428426668363642   F   F   F
  0.8658294734042045  0.2056136287451196  0.1348809598181830   F   F   F
  0.9483266235558290  0.5214631290762668  0.2168444122590927   F   F   F
  0.3016650801768548  0.1078274747768903  0.3198681182524374   T   T   T
  0.5400842202969943  0.6311259866734505  0.3179333785411385   T   T   T
  0.2847406250402855  0.1106504997001707  0.0527892048909067   F   F   F
  0.5347394070459259  0.3670804573712871  0.0500104259863647   F   F   F
  0.3590277917235056  0.2092973479906135  0.1353676211954564   F   F   F
  0.1795593542393732  0.6914409692265622  0.1579673919181843   F   F   F
  0.5212171467669151  0.6245286249288711  0.0521856766999989   F   F   F
  0.3151048399582024  0.3737904076315033  0.0562376898136350   F   F   F
  0.6422458949394994  0.9322045230593474  0.1407324841545474   F   F   F
  0.6833132047318244  0.7857360920973733  0.2233291051454529   F   F   F
  0.8295527645934442  0.6808095917866908  0.1286545647090875   F   F   F
  0.6085657030912799  0.4600908835169406  0.1304246345863618   F   F   F
  0.3196935413756870  0.8766245552796468  0.3187094697728063   T   T   T
  0.2872073272789635  0.8837786298990196  0.0528704927409080   F   F   F
  0.6032048154532390  0.7172003307507424  0.1319261668636358   F   F   F
  0.2439096344744200  0.0149315574630435  0.2294272331681810   F   F   F
  0.6976537942059124  0.0566164128909890  0.2220366322545431   F   F   F
  0.7754425249519240  0.1238223435507833  0.3131872251563390   T   T   T
  0.5376862459782662  0.8710064448425275  0.3172950010372682   T   T   T
  0.7741422871075372  0.1303526627281002  0.0510236411136376   F   F   F
  0.5357933357529490  0.8795584207814997  0.0554483186181827   F   F   F
  0.1814597450678335  0.5098063442843568  0.2171239293045488   F   F   F
  0.9349898804628438  0.3002506672727421  0.2236450676863626   F   F   F
  0.8637922699629215  0.9774248099011871  0.1391290802590888   F   F   F
  0.7103683752906917  0.2901671282358720  0.2217569249545477   F   F   F
  0.4576128818555389  0.2618566628464478  0.2213986287363667   F   F   F
  0.8581290774886767  0.4368715359506439  0.1313162540363635   F   F   F
  0.1100745241357401  0.1878027748418276  0.1340892703363608   F   F   F
  0.7528583583272024  0.5916146920990570  0.0478918017818160   F   F   F
  0.3015051675749518  0.6160063720539810  0.0630200835090875   F   F   F
  0.3734188990724761  0.7330867030792589  0.1363920454954552   F   F   F
  0.3936768738036420  0.4342038804354047  0.1433610557727292   F   F   F
  0.7859766733487225  0.3670366632398354  0.3141928405547261   T   T   T
  0.7669098264074421  0.3554787377304791  0.0472348453454572   F   F   F
  0.9208175640634693  0.0708794067542158  0.2271199104590877   F   F   F
  0.4649313895279050  0.7934409722809264  0.2269696011863616   F   F   F
  0.2368418030058024  0.8043381320118073  0.2355582224818207   F   F   F
  0.4569958715132501  0.0304147897165663  0.2234290062500008   F   F   F
  0.0302897677886267  0.3725364283641940  0.4510237821445315   T   T   T
 
  0.00000000E+00  0.00000000E+00  0.00000000E+00
  0.00000000E+00  0.00000000E+00  0.00000000E+00
  0.00000000E+00  0.00000000E+00  0.00000000E+00
  0.00000000E+00  0.00000000E+00  0.00000000E+00
  0.00000000E+00  0.00000000E+00  0.00000000E+00
  0.00000000E+00  0.00000000E+00  0.00000000E+00
  0.00000000E+00  0.00000000E+00  0.00000000E+00
  0.00000000E+00  0.00000000E+00  0.00000000E+00
  0.00000000E+00  0.00000000E+00  0.00000000E+00
  0.00000000E+00  0.00000000E+00  0.00000000E+00
  0.00000000E+00  0.00000000E+00  0.00000000E+00
  0.00000000E+00  0.00000000E+00  0.00000000E+00
  0.00000000E+00  0.00000000E+00  0.00000000E+00
  0.00000000E+00  0.00000000E+00  0.00000000E+00
  0.00000000E+00  0.00000000E+00  0.00000000E+00
  0.00000000E+00  0.00000000E+00  0.00000000E+00
  0.00000000E+00  0.00000000E+00  0.00000000E+00
  0.00000000E+00  0.00000000E+00  0.00000000E+00
  0.00000000E+00  0.00000000E+00  0.00000000E+00
  0.00000000E+00  0.00000000E+00  0.00000000E+00
  0.00000000E+00  0.00000000E+00  0.00000000E+00
  0.00000000E+00  0.00000000E+00  0.00000000E+00
  0.00000000E+00  0.00000000E+00  0.00000000E+00
  0.00000000E+00  0.00000000E+00  0.00000000E+00
  0.00000000E+00  0.00000000E+00  0.00000000E+00
  0.00000000E+00  0.00000000E+00  0.00000000E+00
  0.00000000E+00  0.00000000E+00  0.00000000E+00
  0.00000000E+00  0.00000000E+00  0.00000000E+00
  0.00000000E+00  0.00000000E+00  0.00000000E+00
  0.00000000E+00  0.00000000E+00  0.00000000E+00
  0.00000000E+00  0.00000000E+00  0.00000000E+00
  0.00000000E+00  0.00000000E+00  0.00000000E+00
  0.00000000E+00  0.00000000E+00  0.00000000E+00
  0.00000000E+00  0.00000000E+00  0.00000000E+00
  0.00000000E+00  0.00000000E+00  0.00000000E+00
  0.00000000E+00  0.00000000E+00  0.00000000E+00
  0.00000000E+00  0.00000000E+00  0.00000000E+00
  0.00000000E+00  0.00000000E+00  0.00000000E+00
  0.00000000E+00  0.00000000E+00  0.00000000E+00
  0.00000000E+00  0.00000000E+00  0.00000000E+00
  0.00000000E+00  0.00000000E+00  0.00000000E+00
  0.00000000E+00  0.00000000E+00  0.00000000E+00
  0.00000000E+00  0.00000000E+00  0.00000000E+00
  0.00000000E+00  0.00000000E+00  0.00000000E+00
  0.00000000E+00  0.00000000E+00  0.00000000E+00
  0.00000000E+00  0.00000000E+00  0.00000000E+00
  0.00000000E+00  0.00000000E+00  0.00000000E+00
  0.00000000E+00  0.00000000E+00  0.00000000E+00
  0.00000000E+00  0.00000000E+00  0.00000000E+00
  0.00000000E+00  0.00000000E+00  0.00000000E+00
  0.00000000E+00  0.00000000E+00  0.00000000E+00
  0.00000000E+00  0.00000000E+00  0.00000000E+00
  0.00000000E+00  0.00000000E+00  0.00000000E+00
  0.00000000E+00  0.00000000E+00  0.00000000E+00
  0.00000000E+00  0.00000000E+00  0.00000000E+00
  0.00000000E+00  0.00000000E+00  0.00000000E+00
  0.00000000E+00  0.00000000E+00  0.00000000E+00
  0.00000000E+00  0.00000000E+00  0.00000000E+00
  0.00000000E+00  0.00000000E+00  0.00000000E+00
  0.00000000E+00  0.00000000E+00  0.00000000E+00
  0.00000000E+00  0.00000000E+00  0.00000000E+00
  0.00000000E+00  0.00000000E+00  0.00000000E+00
  0.00000000E+00  0.00000000E+00  0.00000000E+00
  0.00000000E+00  0.00000000E+00  0.00000000E+00
  0.00000000E+00  0.00000000E+00  0.00000000E+00
  0.00000000E+00  0.00000000E+00  0.00000000E+00
  0.00000000E+00  0.00000000E+00  0.00000000E+00
  0.00000000E+00  0.00000000E+00  0.00000000E+00
  0.00000000E+00  0.00000000E+00  0.00000000E+00
  0.00000000E+00  0.00000000E+00  0.00000000E+00
  0.00000000E+00  0.00000000E+00  0.00000000E+00
  0.00000000E+00  0.00000000E+00  0.00000000E+00
  0.00000000E+00  0.00000000E+00  0.00000000E+00
  0.00000000E+00  0.00000000E+00  0.00000000E+00
  0.00000000E+00  0.00000000E+00  0.00000000E+00
  0.00000000E+00  0.00000000E+00  0.00000000E+00
  0.00000000E+00  0.00000000E+00  0.00000000E+00
  0.00000000E+00  0.00000000E+00  0.00000000E+00
  0.00000000E+00  0.00000000E+00  0.00000000E+00
  0.00000000E+00  0.00000000E+00  0.00000000E+00
  0.00000000E+00  0.00000000E+00  0.00000000E+00
