11.26-low                               
   1.00000000000000     
    11.2227001190000006    0.0000000000000000    0.0000000000000000
     5.6113500595000003    9.7191434021000003    0.0000000000000000
     0.0000000000000000    0.0000000000000000   22.0000000000000000
   Pt   Cu   Fe   Ni   Co
    28    14    13    13    12
Direct
  0.7852239974378449  0.8640002103749682  0.3085462804094138
  0.8667731167207101  0.9554769537659336  0.4067968107038138
  0.1153929478245770  0.4581096688148755  0.4095207107776861
  0.1169748773471990  0.9498072918807320  0.4057412895412953
  0.8668474533961800  0.4557299809868561  0.4121404175623259
  0.3713426020508221  0.9485640173875034  0.4114044474685229
  0.8732691072500701  0.2009905021680736  0.4003150578354331
  0.1167744972248413  0.2046493081562074  0.4076261970568573
  0.6187642132090796  0.9515857056638698  0.4087620510138023
  0.8667075693094246  0.7027050355722160  0.4116327517307303
  0.3634834453923059  0.2020166028932341  0.4091907015672576
  0.3671603668027889  0.7041113146432639  0.4036563361709819
  0.6207435396171751  0.4477445241474621  0.4064266627731687
  0.1130189299455908  0.7064307369471731  0.4077578696267589
  0.6221382853294608  0.2029902627292759  0.4041688101004391
  0.5348601003425353  0.3689224974401523  0.3028349895234538
  0.5257997998266312  0.1193786046139235  0.3082101145977010
  0.5645298112052501  0.1100839468488090  0.0630193864286425
  0.1015577803999392  0.4306632007139267  0.1268159634585391
  0.0221400360088190  0.1266665710707901  0.0404018301252219
  0.1271791002937012  0.9532281532145107  0.1362900686841189
  0.3685770861726879  0.4478860465385539  0.4060619232216864
  0.4404770836678588  0.5712470819459674  0.2197015314061223
  0.6189467554938520  0.6976881753629837  0.4081828265531304
  0.9504811313481311  0.7651720855916515  0.2121919899120526
  0.2644105134982359  0.6192921910181409  0.3068170476043479
  0.1956380889678289  0.2715500611972557  0.2283626918202877
  0.6955784695994738  0.5580612506570871  0.2244245955501855
  0.0300918455212208  0.8715151718612153  0.3077601050002062
  0.5363002899750091  0.3757874601103964  0.0466639838885564
  0.3565448437224382  0.1963292855781534  0.1335132929560366
  0.1673194959678712  0.6907425222213590  0.1476137214913127
  0.6956219664114516  0.0412648708664425  0.2187885189189365
  0.7934188514896640  0.1081482420379744  0.3083524265703522
  0.5380546241990987  0.8614856672156360  0.3144888935548900
  0.7821566713103610  0.1324880829999762  0.0465667234847117
  0.5346894441713568  0.8710523135247368  0.0445965153950475
  0.1927066154744921  0.5129253187369135  0.2212380465242375
  0.9604148217422249  0.2778376502733776  0.2292205819772440
  0.8709868596133946  0.9762406732197980  0.1377637249352949
  0.7344917457570600  0.2830124342667777  0.2296131316236106
  0.4321192931080886  0.2841833620940560  0.2201986066519421
  0.0257459584613304  0.6234423118050451  0.3144395565009018
  0.7926758912174037  0.8530795484582012  0.0664847127542731
  0.0514724138493454  0.8481247979986416  0.0545714467477520
  0.0398580195602966  0.6432019458724159  0.0655220951946764
  0.6265722518614814  0.2326311697642965  0.1419548586583670
  0.3735951261309464  0.9476797064881420  0.1339365596788783
  0.0275407445677353  0.3795534210948048  0.3188823378644397
 -0.0165673424835249  0.3719243177623773  0.0456648448629239
  0.8718879525303594  0.2076249193478505  0.1364290378945812
  0.9455297928565266  0.5263338997785043  0.2261566007915699
  0.2914417079673381  0.1054869512564711  0.3179936953572407
  0.5408093365242912  0.6108813210101239  0.3165075358495812
  0.2758937883120977  0.0959749488853637  0.0493638643716532
  0.2757319020672631  0.3668004799101196  0.3153870995261920
  0.8638071238115717  0.4334739488327826  0.1378976544599614
  0.1171200410428837  0.1922935757459893  0.1340665533669957
  0.7691366816681433  0.6040745567804513  0.0515671877704920
  0.2932582385090758  0.6253742283255993  0.0542942451185267
  0.3739812817512925  0.7277203628320743  0.1320244567710340
  0.3947868186422555  0.4452317886871148  0.1388019617589237
  0.7922110551147575  0.3863975900454995  0.3154961818220907
  0.7734340873362634  0.3668389171402389  0.0496528030197051
  0.9670775006260908  0.0495076868504426  0.2263915159939683
  0.4486876660690278  0.7986018487555145  0.2272384153685638
  0.2116093343629372  0.8100697169585014  0.2304557410084265
  0.4483481395601553  0.0220564938485086  0.2243686713851914
  0.5398395406027777  0.6161347504999103  0.0551125706380981
  0.2867608813085122  0.4132855100149226  0.0593322262250163
  0.6122924659358303  0.9284662954302472  0.1405363877982324
  0.6991878416452586  0.7834873011696468  0.2237835279388669
  0.8434081930255682  0.6728807077185129  0.1362298148487689
  0.6264203663309632  0.4476465870301923  0.1368919170200236
  0.2837623623989143  0.8891846188745061  0.3163100860712608
  0.2939799668492160  0.8753152205311278  0.0458498795358337
  0.6009827987504781  0.7184340397821767  0.1333729264876567
  0.2145059064350927  0.0312372501714789  0.2275573239212294
  0.0611732638891527  0.1028677810894724  0.3140729524449649
  0.8055215367641690  0.6108365251005008  0.3166711729767936
 
  0.00000000E+00  0.00000000E+00  0.00000000E+00
  0.00000000E+00  0.00000000E+00  0.00000000E+00
  0.00000000E+00  0.00000000E+00  0.00000000E+00
  0.00000000E+00  0.00000000E+00  0.00000000E+00
  0.00000000E+00  0.00000000E+00  0.00000000E+00
  0.00000000E+00  0.00000000E+00  0.00000000E+00
  0.00000000E+00  0.00000000E+00  0.00000000E+00
  0.00000000E+00  0.00000000E+00  0.00000000E+00
  0.00000000E+00  0.00000000E+00  0.00000000E+00
  0.00000000E+00  0.00000000E+00  0.00000000E+00
  0.00000000E+00  0.00000000E+00  0.00000000E+00
  0.00000000E+00  0.00000000E+00  0.00000000E+00
  0.00000000E+00  0.00000000E+00  0.00000000E+00
  0.00000000E+00  0.00000000E+00  0.00000000E+00
  0.00000000E+00  0.00000000E+00  0.00000000E+00
  0.00000000E+00  0.00000000E+00  0.00000000E+00
  0.00000000E+00  0.00000000E+00  0.00000000E+00
  0.00000000E+00  0.00000000E+00  0.00000000E+00
  0.00000000E+00  0.00000000E+00  0.00000000E+00
  0.00000000E+00  0.00000000E+00  0.00000000E+00
  0.00000000E+00  0.00000000E+00  0.00000000E+00
  0.00000000E+00  0.00000000E+00  0.00000000E+00
  0.00000000E+00  0.00000000E+00  0.00000000E+00
  0.00000000E+00  0.00000000E+00  0.00000000E+00
  0.00000000E+00  0.00000000E+00  0.00000000E+00
  0.00000000E+00  0.00000000E+00  0.00000000E+00
  0.00000000E+00  0.00000000E+00  0.00000000E+00
  0.00000000E+00  0.00000000E+00  0.00000000E+00
  0.00000000E+00  0.00000000E+00  0.00000000E+00
  0.00000000E+00  0.00000000E+00  0.00000000E+00
  0.00000000E+00  0.00000000E+00  0.00000000E+00
  0.00000000E+00  0.00000000E+00  0.00000000E+00
  0.00000000E+00  0.00000000E+00  0.00000000E+00
  0.00000000E+00  0.00000000E+00  0.00000000E+00
  0.00000000E+00  0.00000000E+00  0.00000000E+00
  0.00000000E+00  0.00000000E+00  0.00000000E+00
  0.00000000E+00  0.00000000E+00  0.00000000E+00
  0.00000000E+00  0.00000000E+00  0.00000000E+00
  0.00000000E+00  0.00000000E+00  0.00000000E+00
  0.00000000E+00  0.00000000E+00  0.00000000E+00
  0.00000000E+00  0.00000000E+00  0.00000000E+00
  0.00000000E+00  0.00000000E+00  0.00000000E+00
  0.00000000E+00  0.00000000E+00  0.00000000E+00
  0.00000000E+00  0.00000000E+00  0.00000000E+00
  0.00000000E+00  0.00000000E+00  0.00000000E+00
  0.00000000E+00  0.00000000E+00  0.00000000E+00
  0.00000000E+00  0.00000000E+00  0.00000000E+00
  0.00000000E+00  0.00000000E+00  0.00000000E+00
  0.00000000E+00  0.00000000E+00  0.00000000E+00
  0.00000000E+00  0.00000000E+00  0.00000000E+00
  0.00000000E+00  0.00000000E+00  0.00000000E+00
  0.00000000E+00  0.00000000E+00  0.00000000E+00
  0.00000000E+00  0.00000000E+00  0.00000000E+00
  0.00000000E+00  0.00000000E+00  0.00000000E+00
  0.00000000E+00  0.00000000E+00  0.00000000E+00
  0.00000000E+00  0.00000000E+00  0.00000000E+00
  0.00000000E+00  0.00000000E+00  0.00000000E+00
  0.00000000E+00  0.00000000E+00  0.00000000E+00
  0.00000000E+00  0.00000000E+00  0.00000000E+00
  0.00000000E+00  0.00000000E+00  0.00000000E+00
  0.00000000E+00  0.00000000E+00  0.00000000E+00
  0.00000000E+00  0.00000000E+00  0.00000000E+00
  0.00000000E+00  0.00000000E+00  0.00000000E+00
  0.00000000E+00  0.00000000E+00  0.00000000E+00
  0.00000000E+00  0.00000000E+00  0.00000000E+00
  0.00000000E+00  0.00000000E+00  0.00000000E+00
  0.00000000E+00  0.00000000E+00  0.00000000E+00
  0.00000000E+00  0.00000000E+00  0.00000000E+00
  0.00000000E+00  0.00000000E+00  0.00000000E+00
  0.00000000E+00  0.00000000E+00  0.00000000E+00
  0.00000000E+00  0.00000000E+00  0.00000000E+00
  0.00000000E+00  0.00000000E+00  0.00000000E+00
  0.00000000E+00  0.00000000E+00  0.00000000E+00
  0.00000000E+00  0.00000000E+00  0.00000000E+00
  0.00000000E+00  0.00000000E+00  0.00000000E+00
  0.00000000E+00  0.00000000E+00  0.00000000E+00
  0.00000000E+00  0.00000000E+00  0.00000000E+00
  0.00000000E+00  0.00000000E+00  0.00000000E+00
  0.00000000E+00  0.00000000E+00  0.00000000E+00
  0.00000000E+00  0.00000000E+00  0.00000000E+00
