11.26                                   
   1.00000000000000     
    11.2227001190000006    0.0000000000000000    0.0000000000000000
     5.6113500595000003    9.7191434021000003    0.0000000000000000
     0.0000000000000000    0.0000000000000000   22.0000000000000000
   Pt   Co   Ni
    32    23    25
Direct
  0.7883380234755961  0.8790399385354988  0.3014946566346950
  0.0314922255422090  0.8796035196277359  0.2917501934066919
  0.2764390216326831  0.3607183505912985  0.3110097555048341
  0.8772650095211034  0.9639192267788275  0.3995210244802294
  0.1135349162432817  0.4679755900465352  0.4101415546903837
  0.1290908452715414  0.9505463090927577  0.3973560402384564
  0.8727205963443936  0.4552677533535672  0.4122649199162822
  0.3742802662913149  0.9538847502531098  0.4152543064698051
  0.8634706088052724  0.2129029711504984  0.3970266286859783
  0.1289383069948471  0.2136349595737457  0.4131212512774027
  0.6286156849935836  0.9518291822393792  0.4098839709424666
  0.8756667459874947  0.7145099947065887  0.4084652825277217
  0.3784108822152490  0.1993165707664915  0.4136636801331264
  0.3735095508280963  0.6994888780997499  0.4000340175755355
  0.6183573638527662  0.4585866757416284  0.3991502674425291
  0.1170863696144266  0.7116026080715088  0.4006385400820633
  0.6273100636033035  0.2000606008047328  0.4044963408632114
  0.5391077132729691  0.3468694355962612  0.3011303017335791
  0.5274465014128253  0.1131548174371133  0.3084784013401389
  0.5456924111864865  0.1264773896555340  0.0668330444488063
  0.1179165896279954  0.4079249947386430  0.1190886190932687
  0.0536680253793733  0.1474083425036454  0.3106891967358365
  0.0089289541072901  0.1017685166141860  0.0491765075173305
  0.1378320738517260  0.9269114493484523  0.1419736841658548
  0.3755876453375464  0.4494373399239677  0.4061859455191268
  0.4797971570688020  0.5539988047073408  0.2297174711858005
  0.6262386298763687  0.7078761813437637  0.4135383749536814
  0.9525234537955285  0.7589897745786587  0.2042040527650499
  0.7965460491812451  0.6312190974919005  0.3107591319843195
  0.2740944903989799  0.6062429222287378  0.3024775178429309
  0.1874902960273559  0.2619820637358359  0.2253988999280736
  0.7108920581921652  0.5610073442280665  0.2141021541778869
  0.0418208301008818  0.6080224251089064  0.3048336000399985
  0.7819683701961324  0.8836707209424333  0.0801259714954767
  0.0016786040713015  0.8657086972174355  0.0717220294938485
  0.0064947452580313  0.6568619922059753  0.0936782229045221
  0.6278902107005209  0.2337904024223860  0.1497297419679384
  0.3605011249290015  0.9423524271913948  0.1347041508170577
  0.0233184709181060  0.3952847013349867  0.3163332936020922
  0.0129609727084770  0.3213949785790859  0.0444243323532802
  0.8442397035959317  0.2276131851927801  0.1389197702350771
  0.9674460336448973  0.5204864880515245  0.2188500749408675
  0.3027513225696765  0.0995680803016370  0.3193727294250124
  0.5519605356669643  0.6480017398572713  0.3171060292970722
  0.2508545359250363  0.0912810139457392  0.0487872830243745
  0.5291378415607966  0.6116220387859386  0.0469794814589903
  0.3338924188960490  0.3612659424876909  0.0722196333166494
  0.5814733168778474  0.9365131401806437  0.1369430198350869
  0.6773266661775565  0.8092123915550360  0.2230530417884111
  0.8097944659649201  0.6790648121066027  0.1402434814110691
  0.6293781667932947  0.4536695041526997  0.1332572430907959
  0.3215909247731759  0.8727116169849580  0.3164001845319717
  0.2991981285955134  0.8498356801815561  0.0500064375063829
  0.5810344788003690  0.7261254454672610  0.1239217899049194
  0.2290723420995064  0.0129455240487815  0.2296757311196487
  0.5487186473507180  0.3606903691084824  0.0554524207325500
  0.3441165493695877  0.1669096226413345  0.1316441221852855
  0.1755439985935752  0.6842061655811307  0.1476189425345495
  0.6608263512314778  0.0424903716069025  0.2130448247930730
  0.7853067218642522  0.1167156558568507  0.2971672632574140
  0.5368336573928971  0.8742718314803568  0.3160636461238724
  0.7728439665647571  0.1227826303353439  0.0604845839147785
  0.5003074210817005  0.8984495284649583  0.0445551465714615
  0.1957150797415892  0.5052286738045169  0.2143863590571016
  0.9354617673513275  0.3154204577916317  0.2255271175521329
  0.8582446837617042  0.0019510069518702  0.1561197289095446
  0.7210428981377746  0.3149762791975874  0.2296972617668516
  0.4300228872247160  0.2657770050013823  0.2137706572099773
  0.8770375531668577  0.4295574328775302  0.1287836487385761
  0.0963481931930588  0.1806982179973815  0.1396927366842675
  0.7598886996376208  0.5886779948244580  0.0515561146703618
  0.3152737423212173  0.5915166876541491  0.0592523364319462
  0.3817921641413307  0.7012659040465721  0.1364658375044030
  0.4004265753915774  0.4537703161622204  0.1488472664738083
  0.7905251113538512  0.4012815870200086  0.3137684138013128
  0.7808992644761332  0.3514802091043023  0.0459807957880543
  0.9695440421577075  0.0843031522883919  0.2219682032812216
  0.4648689818859779  0.7946388815414025  0.2253314380560809
  0.2489049567862125  0.7859896227082714  0.2326762259298434
  0.4386220550646129  0.0277131730844502  0.2245019522078451
 
  0.00000000E+00  0.00000000E+00  0.00000000E+00
  0.00000000E+00  0.00000000E+00  0.00000000E+00
  0.00000000E+00  0.00000000E+00  0.00000000E+00
  0.00000000E+00  0.00000000E+00  0.00000000E+00
  0.00000000E+00  0.00000000E+00  0.00000000E+00
  0.00000000E+00  0.00000000E+00  0.00000000E+00
  0.00000000E+00  0.00000000E+00  0.00000000E+00
  0.00000000E+00  0.00000000E+00  0.00000000E+00
  0.00000000E+00  0.00000000E+00  0.00000000E+00
  0.00000000E+00  0.00000000E+00  0.00000000E+00
  0.00000000E+00  0.00000000E+00  0.00000000E+00
  0.00000000E+00  0.00000000E+00  0.00000000E+00
  0.00000000E+00  0.00000000E+00  0.00000000E+00
  0.00000000E+00  0.00000000E+00  0.00000000E+00
  0.00000000E+00  0.00000000E+00  0.00000000E+00
  0.00000000E+00  0.00000000E+00  0.00000000E+00
  0.00000000E+00  0.00000000E+00  0.00000000E+00
  0.00000000E+00  0.00000000E+00  0.00000000E+00
  0.00000000E+00  0.00000000E+00  0.00000000E+00
  0.00000000E+00  0.00000000E+00  0.00000000E+00
  0.00000000E+00  0.00000000E+00  0.00000000E+00
  0.00000000E+00  0.00000000E+00  0.00000000E+00
  0.00000000E+00  0.00000000E+00  0.00000000E+00
  0.00000000E+00  0.00000000E+00  0.00000000E+00
  0.00000000E+00  0.00000000E+00  0.00000000E+00
  0.00000000E+00  0.00000000E+00  0.00000000E+00
  0.00000000E+00  0.00000000E+00  0.00000000E+00
  0.00000000E+00  0.00000000E+00  0.00000000E+00
  0.00000000E+00  0.00000000E+00  0.00000000E+00
  0.00000000E+00  0.00000000E+00  0.00000000E+00
  0.00000000E+00  0.00000000E+00  0.00000000E+00
  0.00000000E+00  0.00000000E+00  0.00000000E+00
  0.00000000E+00  0.00000000E+00  0.00000000E+00
  0.00000000E+00  0.00000000E+00  0.00000000E+00
  0.00000000E+00  0.00000000E+00  0.00000000E+00
  0.00000000E+00  0.00000000E+00  0.00000000E+00
  0.00000000E+00  0.00000000E+00  0.00000000E+00
  0.00000000E+00  0.00000000E+00  0.00000000E+00
  0.00000000E+00  0.00000000E+00  0.00000000E+00
  0.00000000E+00  0.00000000E+00  0.00000000E+00
  0.00000000E+00  0.00000000E+00  0.00000000E+00
  0.00000000E+00  0.00000000E+00  0.00000000E+00
  0.00000000E+00  0.00000000E+00  0.00000000E+00
  0.00000000E+00  0.00000000E+00  0.00000000E+00
  0.00000000E+00  0.00000000E+00  0.00000000E+00
  0.00000000E+00  0.00000000E+00  0.00000000E+00
  0.00000000E+00  0.00000000E+00  0.00000000E+00
  0.00000000E+00  0.00000000E+00  0.00000000E+00
  0.00000000E+00  0.00000000E+00  0.00000000E+00
  0.00000000E+00  0.00000000E+00  0.00000000E+00
  0.00000000E+00  0.00000000E+00  0.00000000E+00
  0.00000000E+00  0.00000000E+00  0.00000000E+00
  0.00000000E+00  0.00000000E+00  0.00000000E+00
  0.00000000E+00  0.00000000E+00  0.00000000E+00
  0.00000000E+00  0.00000000E+00  0.00000000E+00
  0.00000000E+00  0.00000000E+00  0.00000000E+00
  0.00000000E+00  0.00000000E+00  0.00000000E+00
  0.00000000E+00  0.00000000E+00  0.00000000E+00
  0.00000000E+00  0.00000000E+00  0.00000000E+00
  0.00000000E+00  0.00000000E+00  0.00000000E+00
  0.00000000E+00  0.00000000E+00  0.00000000E+00
  0.00000000E+00  0.00000000E+00  0.00000000E+00
  0.00000000E+00  0.00000000E+00  0.00000000E+00
  0.00000000E+00  0.00000000E+00  0.00000000E+00
  0.00000000E+00  0.00000000E+00  0.00000000E+00
  0.00000000E+00  0.00000000E+00  0.00000000E+00
  0.00000000E+00  0.00000000E+00  0.00000000E+00
  0.00000000E+00  0.00000000E+00  0.00000000E+00
  0.00000000E+00  0.00000000E+00  0.00000000E+00
  0.00000000E+00  0.00000000E+00  0.00000000E+00
  0.00000000E+00  0.00000000E+00  0.00000000E+00
  0.00000000E+00  0.00000000E+00  0.00000000E+00
  0.00000000E+00  0.00000000E+00  0.00000000E+00
  0.00000000E+00  0.00000000E+00  0.00000000E+00
  0.00000000E+00  0.00000000E+00  0.00000000E+00
  0.00000000E+00  0.00000000E+00  0.00000000E+00
  0.00000000E+00  0.00000000E+00  0.00000000E+00
  0.00000000E+00  0.00000000E+00  0.00000000E+00
  0.00000000E+00  0.00000000E+00  0.00000000E+00
  0.00000000E+00  0.00000000E+00  0.00000000E+00
