10.66                                   
   1.00000000000000     
    10.6599998474000000    0.0000000000000000    0.0000000000000000
     5.3299999237000000    9.2318306721999992    0.0000000000000000
     0.0000000000000000    0.0000000000000000   22.0000000000000000
   Pt   Fe   Co   Cu   Ni   H 
    32    13    10    13    12     1
Selective dynamics
Direct
  0.7864705325988424  0.8789660492763930  0.3161797838125676   T   T   T
  0.0430033130430118  0.8821281765433531  0.3143702741546610   T   T   T
  0.2801751864928834  0.3804145819937124  0.3190648980989493   T   T   T
  0.8750017244578546  0.9620441215489004  0.4213315695448010   T   T   T
  0.1208925448363804  0.4630683249291914  0.4261278565788374   T   T   T
  0.1251136058069824  0.9610667897958202  0.4198650669179950   T   T   T
  0.8755632612234916  0.4590792316496517  0.4247070027585002   T   T   T
  0.3745929628047118  0.9606050752085505  0.4193384267615289   T   T   T
  0.8764931907536788  0.2099610232047670  0.4188508679843501   T   T   T
  0.1257651262340327  0.2114509419053969  0.4209905731472955   T   T   T
  0.6248738075199556  0.9598883549470899  0.4223190660497867   T   T   T
  0.8739898116724634  0.7109627408823858  0.4245412394856162   T   T   T
  0.3741295637562582  0.2077852993978498  0.4228190606018076   T   T   T
  0.3747355905295482  0.7149470670974050  0.4214413494215355   T   T   T
  0.6284699586538393  0.4629653323050314  0.4233981456534277   T   T   T
  0.1237786783029322  0.7113858778478227  0.4240734282257265   T   T   T
  0.6271408833936968  0.2071523052302877  0.4233676442900384   T   T   T
  0.5483346056735207  0.3765393486613040  0.3182214987670333   T   T   T
  0.5350585255456146  0.1255362142545578  0.3147622686427048   T   T   T
  0.5486022592113002  0.1220783678684398  0.0417194611409073   F   F   F
  0.1203770114094098  0.4596758926676330  0.1283201030954544   F   F   F
  0.0444906469280117  0.1360548531866442  0.3134928632178479   T   T   T
  0.0418426388172080  0.1305148925801163  0.0343023685500015   F   F   F
  0.1308766909586225  0.9576410281464973  0.1324593496136330   F   F   F
  0.3706825301489892  0.4637894122665814  0.4272667402733921   T   T   T
  0.4558869069702273  0.5451112591427908  0.2190927546713554   T   T   T
  0.6225214281011509  0.7118100223289835  0.4218878543203651   T   T   T
  0.9565070649728463  0.7882629974288201  0.2206294111685754   T   T   T
  0.7954532495123716  0.6222343170854255  0.3184776247653170   T   T   T
  0.2918092277379035  0.6303952276491324  0.3178033030973773   T   T   T
  0.2025786983404942  0.2795855928631903  0.2253501060119943   T   T   T
  0.7064522072568122  0.5493395073203657  0.2209657784381895   T   T   T
  0.0409278139931978  0.6305339209288079  0.3240360713861466   T   T   T
  0.7960105560665554  0.8618201000109948  0.0435832611454572   F   F   F
  0.0565437832242921  0.8651109997121225  0.0392200758363614   F   F   F
  0.0435481061810350  0.6317236463144766  0.0389093084545422   F   F   F
  0.6276815134142240  0.2235163201393817  0.1293691217272723   F   F   F
  0.3825164796165623  0.9540841432375444  0.1307328652727264   F   F   F
  0.0364260722781262  0.3831163412864532  0.3235316538131555   T   T   T
  0.0278953743126209  0.3811135671600852  0.0392268803136346   F   F   F
  0.8723854835080758  0.2152433571581582  0.1290949134499968   F   F   F
  0.9554328297471339  0.5438245799971692  0.2237551977377463   T   T   T
  0.2974925044081672  0.1158721932866182  0.3206763663137866   T   T   T
  0.5411157284250300  0.6289227708692856  0.3215227180591270   T   T   T
  0.2959387413066850  0.1156684851700760  0.0410976887409120   F   F   F
  0.5491575652165039  0.6253534475437093  0.0451299578272710   F   F   F
  0.2944436057289366  0.3818825695120651  0.0395469972636349   F   F   F
  0.6257779840731033  0.9479981115397109  0.1328387403227254   F   F   F
  0.7069015342039429  0.7933606182085172  0.2201817751761419   T   T   T
  0.8652306351059451  0.7044347069518153  0.1296516185590875   F   F   F
  0.6267408805099777  0.4597839886277342  0.1279108792227248   F   F   F
  0.2978800833535231  0.8750859200102505  0.3175153083500628   T   T   T
  0.3065683121091567  0.8685951938597540  0.0415361194227302   F   F   F
  0.6265607890783187  0.7150544964909855  0.1290314723727306   F   F   F
  0.2259371893374604  0.0273213702182021  0.2273298956083646   T   T   T
  0.5442540274210828  0.3813987627289208  0.0359396309863627   F   F   F
  0.3788308164937106  0.2041435759404919  0.1334105030954547   F   F   F
  0.1370202990309650  0.7046968196449441  0.1327566403363605   F   F   F
  0.7048436361602057  0.0507257320849232  0.2203508374894260   T   T   T
  0.7929288924267667  0.1297683622177252  0.3166741425510900   T   T   T
  0.5386582807870197  0.8731545860719510  0.3166338276046216   T   T   T
  0.7969090446290110  0.1230080278139880  0.0358981495909063   F   F   F
  0.5463967724760010  0.8699164031445790  0.0370350138545490   F   F   F
  0.2084814449046016  0.5418444398094394  0.2237710623307431   T   T   T
  0.9509673040567681  0.2974834260389322  0.2216708348194820   T   T   T
  0.8720363512232439  0.9641267701868443  0.1296642823045460   F   F   F
  0.7143521975605173  0.2902445642504293  0.2240985813364144   T   T   T
  0.4578907557535892  0.2924285555473308  0.2212966870371928   T   T   T
  0.8754952507754368  0.4570332552356646  0.1289402077090926   F   F   F
  0.1280802376379100  0.2061871464271974  0.1293457843363655   F   F   F
  0.7920109362154477  0.6217651118845851  0.0414976089772736   F   F   F
  0.2975223793196520  0.6287043760646469  0.0435603156136395   F   F   F
  0.3861497401569878  0.7125257726301442  0.1296682481727274   F   F   F
  0.3823461753116746  0.4514638794503369  0.1268844718136393   F   F   F
  0.7930778642072096  0.3796483346532313  0.3201599577363287   T   T   T
  0.7914206266351727  0.3768939204309305  0.0409385091409078   F   F   F
  0.9552250073463665  0.0535349085388622  0.2214708574208038   T   T   T
  0.4588896444835369  0.7960767725236545  0.2248586185728828   T   T   T
  0.2158442042938810  0.7969153870717779  0.2245098266991241   T   T   T
  0.4623954334680558  0.0294036047617534  0.2226546901080798   T   T   T
  0.5388517932524813  0.3737399221341963  0.4685690687790457   T   T   T
 
  0.00000000E+00  0.00000000E+00  0.00000000E+00
  0.00000000E+00  0.00000000E+00  0.00000000E+00
  0.00000000E+00  0.00000000E+00  0.00000000E+00
  0.00000000E+00  0.00000000E+00  0.00000000E+00
  0.00000000E+00  0.00000000E+00  0.00000000E+00
  0.00000000E+00  0.00000000E+00  0.00000000E+00
  0.00000000E+00  0.00000000E+00  0.00000000E+00
  0.00000000E+00  0.00000000E+00  0.00000000E+00
  0.00000000E+00  0.00000000E+00  0.00000000E+00
  0.00000000E+00  0.00000000E+00  0.00000000E+00
  0.00000000E+00  0.00000000E+00  0.00000000E+00
  0.00000000E+00  0.00000000E+00  0.00000000E+00
  0.00000000E+00  0.00000000E+00  0.00000000E+00
  0.00000000E+00  0.00000000E+00  0.00000000E+00
  0.00000000E+00  0.00000000E+00  0.00000000E+00
  0.00000000E+00  0.00000000E+00  0.00000000E+00
  0.00000000E+00  0.00000000E+00  0.00000000E+00
  0.00000000E+00  0.00000000E+00  0.00000000E+00
  0.00000000E+00  0.00000000E+00  0.00000000E+00
  0.00000000E+00  0.00000000E+00  0.00000000E+00
  0.00000000E+00  0.00000000E+00  0.00000000E+00
  0.00000000E+00  0.00000000E+00  0.00000000E+00
  0.00000000E+00  0.00000000E+00  0.00000000E+00
  0.00000000E+00  0.00000000E+00  0.00000000E+00
  0.00000000E+00  0.00000000E+00  0.00000000E+00
  0.00000000E+00  0.00000000E+00  0.00000000E+00
  0.00000000E+00  0.00000000E+00  0.00000000E+00
  0.00000000E+00  0.00000000E+00  0.00000000E+00
  0.00000000E+00  0.00000000E+00  0.00000000E+00
  0.00000000E+00  0.00000000E+00  0.00000000E+00
  0.00000000E+00  0.00000000E+00  0.00000000E+00
  0.00000000E+00  0.00000000E+00  0.00000000E+00
  0.00000000E+00  0.00000000E+00  0.00000000E+00
  0.00000000E+00  0.00000000E+00  0.00000000E+00
  0.00000000E+00  0.00000000E+00  0.00000000E+00
  0.00000000E+00  0.00000000E+00  0.00000000E+00
  0.00000000E+00  0.00000000E+00  0.00000000E+00
  0.00000000E+00  0.00000000E+00  0.00000000E+00
  0.00000000E+00  0.00000000E+00  0.00000000E+00
  0.00000000E+00  0.00000000E+00  0.00000000E+00
  0.00000000E+00  0.00000000E+00  0.00000000E+00
  0.00000000E+00  0.00000000E+00  0.00000000E+00
  0.00000000E+00  0.00000000E+00  0.00000000E+00
  0.00000000E+00  0.00000000E+00  0.00000000E+00
  0.00000000E+00  0.00000000E+00  0.00000000E+00
  0.00000000E+00  0.00000000E+00  0.00000000E+00
  0.00000000E+00  0.00000000E+00  0.00000000E+00
  0.00000000E+00  0.00000000E+00  0.00000000E+00
  0.00000000E+00  0.00000000E+00  0.00000000E+00
  0.00000000E+00  0.00000000E+00  0.00000000E+00
  0.00000000E+00  0.00000000E+00  0.00000000E+00
  0.00000000E+00  0.00000000E+00  0.00000000E+00
  0.00000000E+00  0.00000000E+00  0.00000000E+00
  0.00000000E+00  0.00000000E+00  0.00000000E+00
  0.00000000E+00  0.00000000E+00  0.00000000E+00
  0.00000000E+00  0.00000000E+00  0.00000000E+00
  0.00000000E+00  0.00000000E+00  0.00000000E+00
  0.00000000E+00  0.00000000E+00  0.00000000E+00
  0.00000000E+00  0.00000000E+00  0.00000000E+00
  0.00000000E+00  0.00000000E+00  0.00000000E+00
  0.00000000E+00  0.00000000E+00  0.00000000E+00
  0.00000000E+00  0.00000000E+00  0.00000000E+00
  0.00000000E+00  0.00000000E+00  0.00000000E+00
  0.00000000E+00  0.00000000E+00  0.00000000E+00
  0.00000000E+00  0.00000000E+00  0.00000000E+00
  0.00000000E+00  0.00000000E+00  0.00000000E+00
  0.00000000E+00  0.00000000E+00  0.00000000E+00
  0.00000000E+00  0.00000000E+00  0.00000000E+00
  0.00000000E+00  0.00000000E+00  0.00000000E+00
  0.00000000E+00  0.00000000E+00  0.00000000E+00
  0.00000000E+00  0.00000000E+00  0.00000000E+00
  0.00000000E+00  0.00000000E+00  0.00000000E+00
  0.00000000E+00  0.00000000E+00  0.00000000E+00
  0.00000000E+00  0.00000000E+00  0.00000000E+00
  0.00000000E+00  0.00000000E+00  0.00000000E+00
  0.00000000E+00  0.00000000E+00  0.00000000E+00
  0.00000000E+00  0.00000000E+00  0.00000000E+00
  0.00000000E+00  0.00000000E+00  0.00000000E+00
  0.00000000E+00  0.00000000E+00  0.00000000E+00
  0.00000000E+00  0.00000000E+00  0.00000000E+00
  0.00000000E+00  0.00000000E+00  0.00000000E+00
