Pt   H                                  
   1.00000000000000     
    11.2227001190000006    0.0000000000000000    0.0000000000000000
     5.6113500595000003    9.7191434021000003    0.0000000000000000
     0.0000000000000000    0.0000000000000000   22.0000000000000000
   Pt   H 
    80    17
Direct
  0.7844127748481182  0.8702738368212309  0.3258574930524511
  0.0341837077739797  0.8703740692614617  0.3258473825610343
  0.0341988191410809  0.6203793491615784  0.3258379929705846
  0.7850405842664357  0.8695334604426932  0.0205309071426394
  0.0345185717548647  0.8695467193141864  0.0207953734618412
  0.0345979941833613  0.6199022490013457  0.0207927729484486
  0.6180052106897653  0.2031113932293201  0.1240053382778840
  0.3678525231014363  0.9534214190470491  0.1239374069209157
  0.0344444669335197  0.3702697744235264  0.3260929694398345
  0.0351753298464661  0.3688442743431345  0.0210763388123263
  0.8680204594801193  0.2031897267863304  0.1240673172372414
  0.9511672248812575  0.5366445922484543  0.2244020480388776
  0.2841517990981789  0.1204411137187266  0.3259705391886958
  0.5342475498130010  0.6211077157312558  0.3246321786922995
  0.2834477438033587  0.3695060511981488  0.3249951375144836
  0.2840437932649364  0.1200780939688108  0.0208702828458466
  0.5350091783495865  0.6192970844077563  0.0206990225857530
  0.2848600772655561  0.3695232067801473  0.0206988180160567
  0.6181125973593538  0.9531431737153570  0.1240302680180022
  0.7011664666401856  0.7868401722981490  0.2242226874935361
  0.8679420309556860  0.7032531468996113  0.1241257948297838
  0.6182065754474660  0.4530693879643402  0.1239181745485686
  0.2833518547338580  0.8721106666401800  0.3248994551652392
  0.2848843184669962  0.8697165313663857  0.0206947427573098
  0.6179895896748580  0.7032506512878494  0.1239735114351262
  0.2011978790878950  0.0364982281510141  0.2243316406087851
  0.8678151110030146  0.9538535828192675  0.4318468673554101
  0.1183901045181890  0.4541201804432611  0.4318792318635108
  0.1182694672582283  0.9532235837896650  0.4318869055155529
  0.8674129626123653  0.4538866412411811  0.4318648083284609
  0.3677539776916722  0.9531695024279816  0.4316415968995534
  0.8672878469664048  0.2042925377001932  0.4319417020277053
  0.1176922964793289  0.2039244932764189  0.4320450645926435
  0.6173899610012183  0.9541604845356136  0.4317627173394843
  0.8678464640422371  0.7038691109305562  0.4318345957384951
  0.3677004615985832  0.2046391808197815  0.4317171800938652
  0.3689020305855040  0.7006493145067618  0.4285068903990477
  0.6141643980086623  0.4557021251564612  0.4282230591032066
  0.1194798866952990  0.7030528066948878  0.4319471240041847
  0.6165468266392191  0.2056520933898152  0.4315321848782279
  0.5341558019614225  0.3696828769593916  0.3247093665453946
  0.5349917911366920  0.3696304439947915  0.0207089890070663
  0.5343220347734021  0.1199518597520343  0.3256859348180296
  0.5350506254239449  0.1194260025034302  0.0208558009832238
  0.8680395600545778  0.4531209389072784  0.1240550239206664
  0.1177671156946453  0.4532938252506464  0.1239850737794269
  0.0343604049064252  0.1202960969567922  0.3260876742739792
  0.0352125599131596  0.1200281233225386  0.0210862577323924
  0.1177394772456283  0.9533403287130447  0.1239742403536805
  0.3690770460729497  0.4560572377073424  0.4288120390806537
  0.4510589740557407  0.5367899838619661  0.2236421178247559
  0.6166272866108287  0.7033863283686125  0.4313485222849781
  0.3678980723291495  0.2031362262403302  0.1239524030384012
  0.1178843195148487  0.2032715514170721  0.1248836267199191
  0.9510241737108518  0.7867615012519624  0.2242907173215355
  0.7845219207600597  0.6204566382388583  0.3257854817085770
  0.2833780230649112  0.6207692060930121  0.3246597343427200
  0.7847882200185570  0.6200996581926307  0.0208884158623203
  0.2848178565572200  0.6197377261944921  0.0206886585845634
  0.3678303751344823  0.7034970569597522  0.1237565514205342
  0.3678377253363970  0.4530590305080235  0.1237538940726091
  0.2012314357692035  0.2869141522543115  0.2243279239388876
  0.7853665496733345  0.3698013016051339  0.3253507656207416
  0.7847448832744476  0.3696632882839872  0.0207274393959083
  0.9511241990134215  0.0367948907363110  0.2244241129988936
  0.4514618862978844  0.7865416896619803  0.2239982595721890
  0.7010936304757193  0.5370221459389211  0.2240686207895412
  0.2008138656705127  0.7867747665279362  0.2239179507266487
  0.4509543073796944  0.0368933710307419  0.2241761666275750
  0.1177566189683584  0.7032987534951924  0.1239673013718623
  0.7011633199321754  0.0365806684514398  0.2242586291681997
  0.7844278224228877  0.1200461672861013  0.3258422654140100
  0.5343030346613464  0.8707431274680423  0.3256381807402559
  0.7848144249826550  0.1192298588732530  0.0209040726687081
  0.5350283374523823  0.8694974109309971  0.0208597289203856
  0.2008639227830252  0.5369965620446930  0.2239576238672410
  0.9502734125081292  0.2871652491858143  0.2247569654091131
  0.8679467100815327  0.9531410316260416  0.1241504852854907
  0.7011332354561128  0.2864513641003814  0.2240889783692190
  0.4514885642281276  0.2867244557401703  0.2240515155233620
  0.4895926064377011  0.5161785240073647  0.5307129568880254
  0.5531756451658332  0.5002110825148756  0.5490266492203743
  0.7044699753615514  0.5400765757412944  0.4714318909056550
  0.2042571531271987  0.7849961105902394  0.4718387380486281
  0.4500060385314050  0.7846574314194384  0.4714174811548243
  0.7005410945826895  0.7873458118541771  0.4720810521496153
  0.9514777817991811  0.7869476700214005  0.4724084291479047
  0.2046390823823304  0.5362186381531371  0.4719443901219053
  0.9514589340477944  0.5375809000021454  0.4725504189861371
  0.2013120506288745  0.2873716309574591  0.4727225397785878
  0.4497472287509425  0.2912475639945640  0.4716188463306187
  0.7036376890688845  0.2824527186743432  0.4714809979725826
  0.9500862917498073  0.2876517241121765  0.4729461473632027
  0.2013900902378791  0.0367114146859880  0.4727116398754010
  0.4511374109992880  0.0371609709600112  0.4723606101556357
  0.7005917778029775  0.0376488929513241  0.4721636136803090
  0.9512268113355881  0.0365540757385703  0.4726028612609258
 
             NaN             NaN             NaN
             NaN             NaN             NaN
             NaN             NaN             NaN
             NaN             NaN             NaN
             NaN             NaN             NaN
             NaN             NaN             NaN
             NaN             NaN             NaN
             NaN             NaN             NaN
             NaN             NaN             NaN
             NaN             NaN             NaN
             NaN             NaN             NaN
             NaN             NaN             NaN
             NaN             NaN             NaN
             NaN             NaN             NaN
             NaN             NaN             NaN
             NaN             NaN             NaN
             NaN             NaN             NaN
             NaN             NaN             NaN
             NaN             NaN             NaN
             NaN             NaN             NaN
             NaN             NaN             NaN
             NaN             NaN             NaN
             NaN             NaN             NaN
             NaN             NaN             NaN
             NaN             NaN             NaN
             NaN             NaN             NaN
             NaN             NaN             NaN
             NaN             NaN             NaN
             NaN             NaN             NaN
             NaN             NaN             NaN
             NaN             NaN             NaN
             NaN             NaN             NaN
             NaN             NaN             NaN
             NaN             NaN             NaN
             NaN             NaN             NaN
             NaN             NaN             NaN
             NaN             NaN             NaN
             NaN             NaN             NaN
             NaN             NaN             NaN
             NaN             NaN             NaN
             NaN             NaN             NaN
             NaN             NaN             NaN
             NaN             NaN             NaN
             NaN             NaN             NaN
             NaN             NaN             NaN
             NaN             NaN             NaN
             NaN             NaN             NaN
             NaN             NaN             NaN
             NaN             NaN             NaN
             NaN             NaN             NaN
             NaN             NaN             NaN
             NaN             NaN             NaN
             NaN             NaN             NaN
             NaN             NaN             NaN
             NaN             NaN             NaN
             NaN             NaN             NaN
             NaN             NaN             NaN
             NaN             NaN             NaN
             NaN             NaN             NaN
             NaN             NaN             NaN
             NaN             NaN             NaN
             NaN             NaN             NaN
             NaN             NaN             NaN
             NaN             NaN             NaN
             NaN             NaN             NaN
             NaN             NaN             NaN
             NaN             NaN             NaN
             NaN             NaN             NaN
             NaN             NaN             NaN
             NaN             NaN             NaN
             NaN             NaN             NaN
             NaN             NaN             NaN
             NaN             NaN             NaN
             NaN             NaN             NaN
             NaN             NaN             NaN
             NaN             NaN             NaN
             NaN             NaN             NaN
             NaN             NaN             NaN
             NaN             NaN             NaN
             NaN             NaN             NaN
             NaN             NaN             NaN
             NaN             NaN             NaN
             NaN             NaN             NaN
             NaN             NaN             NaN
             NaN             NaN             NaN
             NaN             NaN             NaN
             NaN             NaN             NaN
             NaN             NaN             NaN
             NaN             NaN             NaN
             NaN             NaN             NaN
             NaN             NaN             NaN
             NaN             NaN             NaN
             NaN             NaN             NaN
             NaN             NaN             NaN
             NaN             NaN             NaN
             NaN             NaN             NaN
             NaN             NaN             NaN
