Ni   Pt   H                             
   1.00000000000000     
    10.5600004195999997    0.0000000000000000    0.0000000000000000
     5.2800002097999998    9.1452286273999999    0.0000000000000000
     0.0000000000000000    0.0000000000000000   22.0000000000000000
   Ni   Pt   H 
    64    16     2
Selective dynamics
Direct
  0.7857501119606609  0.8687949026015263  0.3108438243997644   T   T   T
  0.0360795618114971  0.8688568253020096  0.3108021766442429   T   T   T
  0.0362435459742894  0.6187115483334908  0.3107500170154123   T   T   T
  0.7874164227977971  0.8671974162722194  0.0507952848136384   F   F   F
  0.0371812071091995  0.8676186467801656  0.0508907119909097   F   F   F
  0.0374684841738073  0.6171956253437827  0.0509625431272696   F   F   F
  0.6195540567074858  0.2015927253995997  0.1375472916636369   F   F   F
  0.3695075232167966  0.9518242491084408  0.1375177793318159   F   F   F
  0.0355703673394317  0.3687600860500810  0.3109823753780204   T   T   T
  0.0370441529486243  0.3679087439453710  0.0510122538363618   F   F   F
  0.8696832728241688  0.2017788834137235  0.1375957440090900   F   F   F
  0.9527831957460484  0.5350525230184606  0.2250965380174781   T   T   T
  0.2861334941936005  0.1180447787904087  0.3109869305681700   T   T   T
  0.5351502990967268  0.6178701093257334  0.3133448997165577   T   T   T
  0.2863900044150207  0.3691148933718939  0.3111875754903418   T   T   T
  0.2865437969577087  0.1185517643978500  0.0509036111818162   F   F   F
  0.5363140996786200  0.6178282872416645  0.0507770374954575   F   F   F
  0.2861704337189792  0.3683748117358761  0.0510002003863619   F   F   F
  0.6196234901564495  0.9517335769848856  0.1373589130318180   F   F   F
  0.7023520311307717  0.7851211075546234  0.2250594677563228   T   T   T
  0.8696404260012258  0.7014772441204471  0.1376145676590923   F   F   F
  0.6196299646022467  0.4516165522451487  0.1375203790909083   F   F   F
  0.2888673885441459  0.8633143718686480  0.3128602860970707   T   T   T
  0.2865937880566349  0.8680734555957201  0.0508346510318205   F   F   F
  0.6194335686725978  0.7016555716469099  0.1373394372999996   F   F   F
  0.2032151427617078  0.0340511422310219  0.2253297512548186   T   T   T
  0.5361450640822845  0.3706619802163867  0.3123868801078325   T   T   T
  0.5363670832523084  0.3680933396912849  0.0508732332090887   F   F   F
  0.5357323575979986  0.1191188139802812  0.3107305901497889   T   T   T
  0.5357740562855895  0.1186998764413190  0.0508076041818200   F   F   F
  0.8695889210879457  0.4517664038733358  0.1377370143909076   F   F   F
  0.1194625732134043  0.4516968078549155  0.1379299702136336   F   F   F
  0.0358467203704596  0.1186206585523826  0.3108988951019248   T   T   T
  0.0372294765921879  0.1183068973757955  0.0509084329409077   F   F   F
  0.1194236500933172  0.9519185222901285  0.1376218898500028   F   F   F
  0.4529118914089887  0.5355360826483860  0.2257234081539613   T   T   T
  0.3693977441760410  0.2019043691557201  0.1377741168545441   F   F   F
  0.1196225089457670  0.2018141881625866  0.1378220913363606   F   F   F
  0.9526517189303617  0.7853812696132211  0.2249858918855592   T   T   T
  0.7853654371217484  0.6185167653904747  0.3110828559564586   T   T   T
  0.2879064099323462  0.6189949604479842  0.3124923568279189   T   T   T
  0.7873265514095209  0.6175143423293008  0.0508263513318212   F   F   F
  0.2865996923037599  0.6174998734400674  0.0509254706590880   F   F   F
  0.3692545354116845  0.7017889581208507  0.1375475984363632   F   F   F
  0.3695484132066582  0.4516338335080263  0.1377474529818201   F   F   F
  0.2024653551335251  0.2848587947773069  0.2252450483856665   T   T   T
  0.7809840241420131  0.3713946705344356  0.3126842176149175   T   T   T
  0.7871940568885378  0.3681532496423969  0.0508772485772724   F   F   F
  0.9526411383647236  0.0354785964218215  0.2250156074120239   T   T   T
  0.4524350591113011  0.7847288935061681  0.2254218891516074   T   T   T
  0.7020645383792909  0.5351587368566081  0.2254218558680470   T   T   T
  0.2036620089539184  0.7849037338659945  0.2254566352157827   T   T   T
  0.4525069454684664  0.0353950558777395  0.2249532786949517   T   T   T
  0.1194697833192677  0.7016886593380178  0.1377196208045461   F   F   F
  0.7024828294515867  0.0355062415621645  0.2249329050205393   T   T   T
  0.7858558020271923  0.1190100686351019  0.3107762088320397   T   T   T
  0.5357043754691230  0.8681619154403716  0.3110722196573523   T   T   T
  0.7868336547289516  0.1183080422132221  0.0508386848136340   F   F   F
  0.5365155299928688  0.8682561142222056  0.0507168413227248   F   F   F
  0.2031990088325799  0.5353236041152134  0.2251913166546593   T   T   T
  0.9515955872038212  0.2856893362744206  0.2253354975224947   T   T   T
  0.8694806842594929  0.9517801275761713  0.1375034099181818   F   F   F
  0.7022598880738249  0.2862891492304588  0.2253731526919207   T   T   T
  0.4527523653239769  0.2857617637467688  0.2251139967459012   T   T   T
  0.8692033557886703  0.9520192815866908  0.4080325021180823   T   T   T
  0.1191128368976249  0.4521586180563331  0.4081016685242913   T   T   T
  0.1189295381607820  0.9522368031237373  0.4081538843558628   T   T   T
  0.8713240931849149  0.4511387162378445  0.4080743188540547   T   T   T
  0.3684129942472216  0.9540208490477846  0.4081030074600779   T   T   T
  0.8695546079973210  0.2016074426172222  0.4081758837825855   T   T   T
  0.1192240630941601  0.2018382376882284  0.4077730433472080   T   T   T
  0.6189774100956281  0.9525678369547935  0.4080508982907979   T   T   T
  0.8697508543493164  0.7017876123694543  0.4080552433210050   T   T   T
  0.3692854140871527  0.2020445595433455  0.4081063272451646   T   T   T
  0.3665068683730749  0.7052882572625190  0.4193029402338290   T   T   T
  0.6231087582551535  0.4487769397236537  0.4181002149741710   T   T   T
  0.1173917295392147  0.7031500281673515  0.4076090023119986   T   T   T
  0.6202673550293066  0.2002559773475667  0.4076112812980527   T   T   T
  0.3676622987110823  0.4502807269543883  0.4103952739932353   T   T   T
  0.6214077482513106  0.7040537712060343  0.4096050858510811   T   T   T
  0.4513939660414815  0.5403982976960999  0.4678704802702838   T   T   T
  0.5321772213192199  0.6151879377404403  0.4678806089417200   T   T   T
 
  0.00000000E+00  0.00000000E+00  0.00000000E+00
  0.00000000E+00  0.00000000E+00  0.00000000E+00
  0.00000000E+00  0.00000000E+00  0.00000000E+00
  0.00000000E+00  0.00000000E+00  0.00000000E+00
  0.00000000E+00  0.00000000E+00  0.00000000E+00
  0.00000000E+00  0.00000000E+00  0.00000000E+00
  0.00000000E+00  0.00000000E+00  0.00000000E+00
  0.00000000E+00  0.00000000E+00  0.00000000E+00
  0.00000000E+00  0.00000000E+00  0.00000000E+00
  0.00000000E+00  0.00000000E+00  0.00000000E+00
  0.00000000E+00  0.00000000E+00  0.00000000E+00
  0.00000000E+00  0.00000000E+00  0.00000000E+00
  0.00000000E+00  0.00000000E+00  0.00000000E+00
  0.00000000E+00  0.00000000E+00  0.00000000E+00
  0.00000000E+00  0.00000000E+00  0.00000000E+00
  0.00000000E+00  0.00000000E+00  0.00000000E+00
  0.00000000E+00  0.00000000E+00  0.00000000E+00
  0.00000000E+00  0.00000000E+00  0.00000000E+00
  0.00000000E+00  0.00000000E+00  0.00000000E+00
  0.00000000E+00  0.00000000E+00  0.00000000E+00
  0.00000000E+00  0.00000000E+00  0.00000000E+00
  0.00000000E+00  0.00000000E+00  0.00000000E+00
  0.00000000E+00  0.00000000E+00  0.00000000E+00
  0.00000000E+00  0.00000000E+00  0.00000000E+00
  0.00000000E+00  0.00000000E+00  0.00000000E+00
  0.00000000E+00  0.00000000E+00  0.00000000E+00
  0.00000000E+00  0.00000000E+00  0.00000000E+00
  0.00000000E+00  0.00000000E+00  0.00000000E+00
  0.00000000E+00  0.00000000E+00  0.00000000E+00
  0.00000000E+00  0.00000000E+00  0.00000000E+00
  0.00000000E+00  0.00000000E+00  0.00000000E+00
  0.00000000E+00  0.00000000E+00  0.00000000E+00
  0.00000000E+00  0.00000000E+00  0.00000000E+00
  0.00000000E+00  0.00000000E+00  0.00000000E+00
  0.00000000E+00  0.00000000E+00  0.00000000E+00
  0.00000000E+00  0.00000000E+00  0.00000000E+00
  0.00000000E+00  0.00000000E+00  0.00000000E+00
  0.00000000E+00  0.00000000E+00  0.00000000E+00
  0.00000000E+00  0.00000000E+00  0.00000000E+00
  0.00000000E+00  0.00000000E+00  0.00000000E+00
  0.00000000E+00  0.00000000E+00  0.00000000E+00
  0.00000000E+00  0.00000000E+00  0.00000000E+00
  0.00000000E+00  0.00000000E+00  0.00000000E+00
  0.00000000E+00  0.00000000E+00  0.00000000E+00
  0.00000000E+00  0.00000000E+00  0.00000000E+00
  0.00000000E+00  0.00000000E+00  0.00000000E+00
  0.00000000E+00  0.00000000E+00  0.00000000E+00
  0.00000000E+00  0.00000000E+00  0.00000000E+00
  0.00000000E+00  0.00000000E+00  0.00000000E+00
  0.00000000E+00  0.00000000E+00  0.00000000E+00
  0.00000000E+00  0.00000000E+00  0.00000000E+00
  0.00000000E+00  0.00000000E+00  0.00000000E+00
  0.00000000E+00  0.00000000E+00  0.00000000E+00
  0.00000000E+00  0.00000000E+00  0.00000000E+00
  0.00000000E+00  0.00000000E+00  0.00000000E+00
  0.00000000E+00  0.00000000E+00  0.00000000E+00
  0.00000000E+00  0.00000000E+00  0.00000000E+00
  0.00000000E+00  0.00000000E+00  0.00000000E+00
  0.00000000E+00  0.00000000E+00  0.00000000E+00
  0.00000000E+00  0.00000000E+00  0.00000000E+00
  0.00000000E+00  0.00000000E+00  0.00000000E+00
  0.00000000E+00  0.00000000E+00  0.00000000E+00
  0.00000000E+00  0.00000000E+00  0.00000000E+00
  0.00000000E+00  0.00000000E+00  0.00000000E+00
  0.00000000E+00  0.00000000E+00  0.00000000E+00
  0.00000000E+00  0.00000000E+00  0.00000000E+00
  0.00000000E+00  0.00000000E+00  0.00000000E+00
  0.00000000E+00  0.00000000E+00  0.00000000E+00
  0.00000000E+00  0.00000000E+00  0.00000000E+00
  0.00000000E+00  0.00000000E+00  0.00000000E+00
  0.00000000E+00  0.00000000E+00  0.00000000E+00
  0.00000000E+00  0.00000000E+00  0.00000000E+00
  0.00000000E+00  0.00000000E+00  0.00000000E+00
  0.00000000E+00  0.00000000E+00  0.00000000E+00
  0.00000000E+00  0.00000000E+00  0.00000000E+00
  0.00000000E+00  0.00000000E+00  0.00000000E+00
  0.00000000E+00  0.00000000E+00  0.00000000E+00
  0.00000000E+00  0.00000000E+00  0.00000000E+00
  0.00000000E+00  0.00000000E+00  0.00000000E+00
  0.00000000E+00  0.00000000E+00  0.00000000E+00
  0.00000000E+00  0.00000000E+00  0.00000000E+00
  0.00000000E+00  0.00000000E+00  0.00000000E+00
