Pt   H                                  
   1.00000000000000     
    11.2227001190000006    0.0000000000000000    0.0000000000000000
     5.6113500595000003    9.7191434021000003    0.0000000000000000
     0.0000000000000000    0.0000000000000000   22.0000000000000000
   Pt   H 
    80    17
Direct
  0.7852513299797491  0.8689766597111531  0.3261209573431993
  0.0351820642511869  0.8689264448058938  0.3261145864087435
  0.0351969940707201  0.6189929394541155  0.3260787294777249
  0.7851751775186542  0.8687472622087145  0.0208010994533358
  0.0348000112333852  0.8687547651376442  0.0210898449055472
  0.0349505382165569  0.6190006181911685  0.0210336404461200
  0.6185201815501263  0.2019840996429961  0.1242337877481197
  0.3684531231780743  0.9523090009899926  0.1242079734603531
  0.0355844510979650  0.3688378539029073  0.3262039331457988
  0.0354292664683023  0.3681580028969434  0.0211608366651613
  0.8686261022787728  0.2019916620494214  0.1242593221234695
  0.9519722422176803  0.5354585791614264  0.2245357306029379
  0.2851907458799791  0.1191740241017025  0.3262302503949445
  0.5357221468696270  0.6192758495450383  0.3247050148569218
  0.2846326837503464  0.3682472514282150  0.3254196563266570
  0.2843988918464967  0.1191357046567617  0.0212563708048813
  0.5351240589405545  0.6186630315717115  0.0209002104342478
  0.2850991647177741  0.3687220620574015  0.0209181776764616
  0.6185955494913618  0.9521183429807730  0.1243266711857602
  0.7019668268823241  0.7855723709174157  0.2244438068649191
  0.8685173974018379  0.7022102614306003  0.1243178164791494
  0.6187790465964416  0.4519486900284027  0.1240011535490462
  0.2845250851453183  0.8704335725945930  0.3252822915692605
  0.2851101201066595  0.8687211791464489  0.0209340145785158
  0.6185476914798647  0.7022025287481987  0.1241598641984580
  0.2021046789948604  0.0351623011796482  0.2246888178351102
  0.8689608567860641  0.9523738346081322  0.4320797555530547
  0.1196852737113152  0.4525352444638653  0.4320682464567331
  0.1194373283236969  0.9516335865027536  0.4321393532066974
  0.8684287648964223  0.4523298617511486  0.4318118499090895
  0.3689005972424726  0.9518729505218522  0.4318481930735095
  0.8681778811733345  0.2028227585428536  0.4320534059480464
  0.1188172736192188  0.2023747130653211  0.4321994148178325
  0.6186811565328082  0.9526625569544291  0.4321118355990063
  0.8690776778536452  0.7021911848781915  0.4320432221759593
  0.3689477894901053  0.2031855313788635  0.4320837217134814
  0.3706131860407150  0.6987905718565054  0.4285807968391291
  0.6153819234223517  0.4539912034152263  0.4285314449503782
  0.1210071836330214  0.7012574139165904  0.4321751678327611
  0.6177440771987197  0.2044761212159503  0.4322152863002766
  0.5353251051534247  0.3682487524182505  0.3249276049089422
  0.5352039243736446  0.3686715418359803  0.0209336247139914
  0.5354102329222500  0.1187245401827062  0.3260950249393949
  0.5353552117368964  0.1185045281916783  0.0210594109694482
  0.8687317900344219  0.4519746428575807  0.1241833493582621
  0.1183919759010198  0.4521651881899948  0.1241980567131871
  0.0353490709224632  0.1188504156168832  0.3262834463779755
  0.0355000408174321  0.1190517832639411  0.0212886188707013
  0.1183717976576268  0.9522798439957543  0.1242755995009969
  0.3710242287540302  0.4544458048435965  0.4296100049941428
  0.4518552194314296  0.5355510018583709  0.2237967955279652
  0.6180340470884355  0.7014796276330629  0.4315030900054354
  0.3685284330723588  0.2020701568954319  0.1242259582845721
  0.1184719804483218  0.2022199624394574  0.1250186176599968
  0.9517761371144381  0.7855059628588017  0.2245667408753410
  0.7856569162094776  0.6189581222073401  0.3259024963509924
  0.2846570937094079  0.6189434399662699  0.3249762303445819
  0.7850499014939896  0.6190926263791335  0.0211091268967633
  0.2850490301880566  0.6188891184274367  0.0209790666047921
  0.3683742772329529  0.7024586048905469  0.1240195219197895
  0.3683774818463461  0.4519920814256766  0.1240059388526451
  0.2020781945616301  0.2857262326839495  0.2245749292578083
  0.7868181504666050  0.3681276025748713  0.3252317843751509
  0.7851185333425991  0.3686808774995646  0.0209201048856499
  0.9518533433935144  0.0355205496834399  0.2246841330794109
  0.4521266349506099  0.7855377001267013  0.2241834727939112
  0.7019018825676948  0.5357264862307107  0.2241294733027126
  0.2016425817408133  0.7854819910362588  0.2242393065180406
  0.4517742065926988  0.0356921223735452  0.2245557440431141
  0.1183189210687605  0.7022271175485387  0.1242438131697024
  0.7019158255508443  0.0354199043065174  0.2245307190085099
  0.7852577390705073  0.1187662036263284  0.3261125478548058
  0.5353782034325884  0.8692599600188645  0.3259130139120470
  0.7851304832783398  0.1182935026839823  0.0211663513224427
  0.5353862385667945  0.8686876110612982  0.0210777174389882
  0.2017559384342009  0.5357553187877423  0.2242580722124692
  0.9515253206489634  0.2856693616531933  0.2246990102688484
  0.8685321070027596  0.9519999050949360  0.1244246862693429
  0.7018649879225950  0.2852293838176496  0.2242178532712389
  0.4521091840631882  0.2853947273174173  0.2242843426467177
  0.4668976240747298  0.5502711255452811  0.5462894479989558
  0.5040937321788317  0.5855441117115270  0.5584073571928384
  0.7018398753847633  0.5353497395683594  0.4713034451135892
  0.2048928400671651  0.7840488193229692  0.4718698222362431
  0.4518456179873641  0.7852652325633247  0.4713323686771210
  0.7018498478396684  0.7854237624098805  0.4722531913515788
  0.9527723640328272  0.7852934793344660  0.4724983674362885
  0.2064502270753470  0.5342999261820364  0.4722010320247808
  0.9523025575569815  0.5359468901246184  0.4726203359780491
  0.2022871849932422  0.2858771836422567  0.4729058822955728
  0.4507569005593483  0.2899540325054897  0.4722198574902012
  0.7006178643704125  0.2883105264978647  0.4718409333668335
  0.9515338530908544  0.2859325377310985  0.4729033519433930
  0.2024355236325979  0.0351142226337090  0.4729278187360048
  0.4523869651964693  0.0358659494868879  0.4726674226786534
  0.7018310838252537  0.0362881250761375  0.4725385380779064
  0.9520047179678520  0.0354643731074750  0.4727901708916699
 
  0.00000000E+00  0.00000000E+00  0.00000000E+00
  0.00000000E+00  0.00000000E+00  0.00000000E+00
  0.00000000E+00  0.00000000E+00  0.00000000E+00
  0.00000000E+00  0.00000000E+00  0.00000000E+00
  0.00000000E+00  0.00000000E+00  0.00000000E+00
  0.00000000E+00  0.00000000E+00  0.00000000E+00
  0.00000000E+00  0.00000000E+00  0.00000000E+00
  0.00000000E+00  0.00000000E+00  0.00000000E+00
  0.00000000E+00  0.00000000E+00  0.00000000E+00
  0.00000000E+00  0.00000000E+00  0.00000000E+00
  0.00000000E+00  0.00000000E+00  0.00000000E+00
  0.00000000E+00  0.00000000E+00  0.00000000E+00
  0.00000000E+00  0.00000000E+00  0.00000000E+00
  0.00000000E+00  0.00000000E+00  0.00000000E+00
  0.00000000E+00  0.00000000E+00  0.00000000E+00
  0.00000000E+00  0.00000000E+00  0.00000000E+00
  0.00000000E+00  0.00000000E+00  0.00000000E+00
  0.00000000E+00  0.00000000E+00  0.00000000E+00
  0.00000000E+00  0.00000000E+00  0.00000000E+00
  0.00000000E+00  0.00000000E+00  0.00000000E+00
  0.00000000E+00  0.00000000E+00  0.00000000E+00
  0.00000000E+00  0.00000000E+00  0.00000000E+00
  0.00000000E+00  0.00000000E+00  0.00000000E+00
  0.00000000E+00  0.00000000E+00  0.00000000E+00
  0.00000000E+00  0.00000000E+00  0.00000000E+00
  0.00000000E+00  0.00000000E+00  0.00000000E+00
  0.00000000E+00  0.00000000E+00  0.00000000E+00
  0.00000000E+00  0.00000000E+00  0.00000000E+00
  0.00000000E+00  0.00000000E+00  0.00000000E+00
  0.00000000E+00  0.00000000E+00  0.00000000E+00
  0.00000000E+00  0.00000000E+00  0.00000000E+00
  0.00000000E+00  0.00000000E+00  0.00000000E+00
  0.00000000E+00  0.00000000E+00  0.00000000E+00
  0.00000000E+00  0.00000000E+00  0.00000000E+00
  0.00000000E+00  0.00000000E+00  0.00000000E+00
  0.00000000E+00  0.00000000E+00  0.00000000E+00
  0.00000000E+00  0.00000000E+00  0.00000000E+00
  0.00000000E+00  0.00000000E+00  0.00000000E+00
  0.00000000E+00  0.00000000E+00  0.00000000E+00
  0.00000000E+00  0.00000000E+00  0.00000000E+00
  0.00000000E+00  0.00000000E+00  0.00000000E+00
  0.00000000E+00  0.00000000E+00  0.00000000E+00
  0.00000000E+00  0.00000000E+00  0.00000000E+00
  0.00000000E+00  0.00000000E+00  0.00000000E+00
  0.00000000E+00  0.00000000E+00  0.00000000E+00
  0.00000000E+00  0.00000000E+00  0.00000000E+00
  0.00000000E+00  0.00000000E+00  0.00000000E+00
  0.00000000E+00  0.00000000E+00  0.00000000E+00
  0.00000000E+00  0.00000000E+00  0.00000000E+00
  0.00000000E+00  0.00000000E+00  0.00000000E+00
  0.00000000E+00  0.00000000E+00  0.00000000E+00
  0.00000000E+00  0.00000000E+00  0.00000000E+00
  0.00000000E+00  0.00000000E+00  0.00000000E+00
  0.00000000E+00  0.00000000E+00  0.00000000E+00
  0.00000000E+00  0.00000000E+00  0.00000000E+00
  0.00000000E+00  0.00000000E+00  0.00000000E+00
  0.00000000E+00  0.00000000E+00  0.00000000E+00
  0.00000000E+00  0.00000000E+00  0.00000000E+00
  0.00000000E+00  0.00000000E+00  0.00000000E+00
  0.00000000E+00  0.00000000E+00  0.00000000E+00
  0.00000000E+00  0.00000000E+00  0.00000000E+00
  0.00000000E+00  0.00000000E+00  0.00000000E+00
  0.00000000E+00  0.00000000E+00  0.00000000E+00
  0.00000000E+00  0.00000000E+00  0.00000000E+00
  0.00000000E+00  0.00000000E+00  0.00000000E+00
  0.00000000E+00  0.00000000E+00  0.00000000E+00
  0.00000000E+00  0.00000000E+00  0.00000000E+00
  0.00000000E+00  0.00000000E+00  0.00000000E+00
  0.00000000E+00  0.00000000E+00  0.00000000E+00
  0.00000000E+00  0.00000000E+00  0.00000000E+00
  0.00000000E+00  0.00000000E+00  0.00000000E+00
  0.00000000E+00  0.00000000E+00  0.00000000E+00
  0.00000000E+00  0.00000000E+00  0.00000000E+00
  0.00000000E+00  0.00000000E+00  0.00000000E+00
  0.00000000E+00  0.00000000E+00  0.00000000E+00
  0.00000000E+00  0.00000000E+00  0.00000000E+00
  0.00000000E+00  0.00000000E+00  0.00000000E+00
  0.00000000E+00  0.00000000E+00  0.00000000E+00
  0.00000000E+00  0.00000000E+00  0.00000000E+00
  0.00000000E+00  0.00000000E+00  0.00000000E+00
  0.00000000E+00  0.00000000E+00  0.00000000E+00
  0.00000000E+00  0.00000000E+00  0.00000000E+00
  0.00000000E+00  0.00000000E+00  0.00000000E+00
  0.00000000E+00  0.00000000E+00  0.00000000E+00
  0.00000000E+00  0.00000000E+00  0.00000000E+00
  0.00000000E+00  0.00000000E+00  0.00000000E+00
  0.00000000E+00  0.00000000E+00  0.00000000E+00
  0.00000000E+00  0.00000000E+00  0.00000000E+00
  0.00000000E+00  0.00000000E+00  0.00000000E+00
  0.00000000E+00  0.00000000E+00  0.00000000E+00
  0.00000000E+00  0.00000000E+00  0.00000000E+00
  0.00000000E+00  0.00000000E+00  0.00000000E+00
  0.00000000E+00  0.00000000E+00  0.00000000E+00
  0.00000000E+00  0.00000000E+00  0.00000000E+00
  0.00000000E+00  0.00000000E+00  0.00000000E+00
  0.00000000E+00  0.00000000E+00  0.00000000E+00
  0.00000000E+00  0.00000000E+00  0.00000000E+00
