10.86                                   
   1.00000000000000     
    10.8599996566999994    0.0000000000000000    0.0000000000000000
     5.4299998282999997    9.4050355878000005    0.0000000000000000
     0.0000000000000000    0.0000000000000000   22.0000000000000000
   Pt   Fe   Co   Cu   Ni   H 
    32    13    10    13    12     1
Selective dynamics
Direct
  0.7850221943007945  0.8795633572769965  0.3149057217650800   T   T   T
  0.0426908689868154  0.8818400886239478  0.3124500743939806   T   T   T
  0.2795990043199725  0.3805327890981959  0.3168405889917919   T   T   T
  0.8744877940687469  0.9630561435243178  0.4174152758801121   T   T   T
  0.1202060481349305  0.4645467518803201  0.4218104190079899   T   T   T
  0.1254996315782782  0.9609505940599937  0.4163649789810664   T   T   T
  0.8757540768475612  0.4633658071733392  0.4239683168750568   T   T   T
  0.3732148457006942  0.9603498314408566  0.4166252305728397   T   T   T
  0.8755122086123729  0.2080027496112126  0.4180916242615800   T   T   T
  0.1277284289704065  0.2113847220237868  0.4175052611782151   T   T   T
  0.6244726765779711  0.9603024210460211  0.4190664958819603   T   T   T
  0.8736440225260157  0.7122814067702840  0.4213555145942718   T   T   T
  0.3748064130652238  0.2083863710205179  0.4195957626059421   T   T   T
  0.3757388878886515  0.7131713582011794  0.4186214121607784   T   T   T
  0.6214421609625123  0.4633808197760668  0.4205546653473772   T   T   T
  0.1239494751026988  0.7106652353712685  0.4204950287770903   T   T   T
  0.6240133899314503  0.2087748513871591  0.4169184889017734   T   T   T
  0.5482304549959323  0.3769731469971199  0.3154611189992238   T   T   T
  0.5336941690783011  0.1254955900734111  0.3128574371378547   T   T   T
  0.5483883292934877  0.1233734725262678  0.0461674633454550   F   F   F
  0.1189763218456719  0.4584087287125840  0.1298649037999979   F   F   F
  0.0441988326833330  0.1362633264179479  0.3127064125681818   T   T   T
  0.0406657298294206  0.1314986331475723  0.0367327973454579   F   F   F
  0.1309549378495518  0.9578912708619924  0.1339264883772699   F   F   F
  0.3736807195693723  0.4607560426262968  0.4205636245585426   T   T   T
  0.4556522333904454  0.5480667654342994  0.2186221383272695   F   F   F
  0.6204076706859877  0.7146084059856102  0.4189053060068363   T   T   T
  0.9546323180157117  0.7862445906948139  0.2204777234045423   F   F   F
  0.7961176806667251  0.6221403840694729  0.3179882883444418   T   T   T
  0.2907498190644591  0.6309372051504615  0.3161775207285371   T   T   T
  0.2002708624331007  0.2770478458561030  0.2260251504045456   F   F   F
  0.7045829241556802  0.5516321129959252  0.2208851499954534   F   F   F
  0.0406954505521436  0.6318674978054923  0.3222096286033064   T   T   T
  0.7955110030430319  0.8609512276384805  0.0480385122272722   F   F   F
  0.0573949397823768  0.8629365884407534  0.0426982104681812   F   F   F
  0.0458753864337567  0.6317424305982726  0.0425419417454549   F   F   F
  0.6283988685906934  0.2264175371289738  0.1318427956090886   F   F   F
  0.3823587953945804  0.9533284287228625  0.1319694655727304   F   F   F
  0.0355011925448366  0.3833880984988835  0.3224394948181816   T   T   T
  0.0268079723616808  0.3797381930306329  0.0416316377136354   F   F   F
  0.8723791053676138  0.2158092365469457  0.1307545436727295   F   F   F
  0.9547024218507971  0.5436382700170128  0.2244670324363653   F   F   F
  0.2980006747769590  0.1150956144191157  0.3197966255543517   T   T   T
  0.5413730793322342  0.6278948423997528  0.3204342872985734   T   T   T
  0.2945049925961882  0.1170356248441848  0.0441488403727277   F   F   F
  0.5519685041016658  0.6240663073846946  0.0467109319272723   F   F   F
  0.2960777314503247  0.3827352514932940  0.0441011896590879   F   F   F
  0.6249515703976343  0.9461887287639286  0.1346385474090894   F   F   F
  0.7073007629469075  0.7919560005877955  0.2206980387772717   F   F   F
  0.8641642368870777  0.7014903972780502  0.1310198486954519   F   F   F
  0.6284097325721945  0.4565427356882950  0.1288810116500017   F   F   F
  0.2974898517258099  0.8741712560021104  0.3171361726889979   T   T   T
  0.3034084821940297  0.8750332447838289  0.0436180695045465   F   F   F
  0.6263955126564014  0.7168699604014037  0.1294389879545434   F   F   F
  0.2282460863355027  0.0251927252999806  0.2279743672272758   F   F   F
  0.5411956632024371  0.3786938250526219  0.0386404366090929   F   F   F
  0.3758860748220698  0.2062408198131820  0.1355179188181808   F   F   F
  0.1391045929531671  0.7049881574824539  0.1351065841363663   F   F   F
  0.7043988531711349  0.0514063915852887  0.2204906319818178   F   F   F
  0.7931781378289687  0.1297097028484583  0.3153079359030564   T   T   T
  0.5388928203309613  0.8726013229493645  0.3161417705760033   T   T   T
  0.7963472328275429  0.1231574992127094  0.0392939661590930   F   F   F
  0.5440945193985200  0.8759385405927063  0.0392459096681819   F   F   F
  0.2079024299005852  0.5431036366120594  0.2237859261272703   F   F   F
  0.9489325326236937  0.3007508570375990  0.2224478204318174   F   F   F
  0.8725112496294898  0.9655798376329443  0.1316447751227301   F   F   F
  0.7171476949159796  0.2914481447423398  0.2245606244909055   F   F   F
  0.4567330680043540  0.2945848388488770  0.2213046886454535   F   F   F
  0.8750294207410079  0.4572868458869976  0.1300096086727294   F   F   F
  0.1269801392207555  0.2054284542959337  0.1306704091090936   F   F   F
  0.7957063935882616  0.6202328764993581  0.0430280211045471   F   F   F
  0.2938692617776510  0.6266274624994352  0.0463221184909060   F   F   F
  0.3850310216699739  0.7148852913243218  0.1298736747000007   F   F   F
  0.3816718202388216  0.4522385150798698  0.1290563122090944   F   F   F
  0.7924913516077294  0.3818530784181539  0.3206574851952126   T   T   T
  0.7947937720711735  0.3739039784455045  0.0430364376636376   F   F   F
  0.9546170343474998  0.0559472075345013  0.2217931839272751   F   F   F
  0.4595337133946984  0.7957272121764092  0.2251697936636390   F   F   F
  0.2181471024034209  0.7973202649150295  0.2249219835909102   F   F   F
  0.4610829538139924  0.0274880027604922  0.2232129655818156   F   F   F
  0.7917374501553013  0.3754122558327062  0.4628983497661890   T   T   T
 
  0.00000000E+00  0.00000000E+00  0.00000000E+00
  0.00000000E+00  0.00000000E+00  0.00000000E+00
  0.00000000E+00  0.00000000E+00  0.00000000E+00
  0.00000000E+00  0.00000000E+00  0.00000000E+00
  0.00000000E+00  0.00000000E+00  0.00000000E+00
  0.00000000E+00  0.00000000E+00  0.00000000E+00
  0.00000000E+00  0.00000000E+00  0.00000000E+00
  0.00000000E+00  0.00000000E+00  0.00000000E+00
  0.00000000E+00  0.00000000E+00  0.00000000E+00
  0.00000000E+00  0.00000000E+00  0.00000000E+00
  0.00000000E+00  0.00000000E+00  0.00000000E+00
  0.00000000E+00  0.00000000E+00  0.00000000E+00
  0.00000000E+00  0.00000000E+00  0.00000000E+00
  0.00000000E+00  0.00000000E+00  0.00000000E+00
  0.00000000E+00  0.00000000E+00  0.00000000E+00
  0.00000000E+00  0.00000000E+00  0.00000000E+00
  0.00000000E+00  0.00000000E+00  0.00000000E+00
  0.00000000E+00  0.00000000E+00  0.00000000E+00
  0.00000000E+00  0.00000000E+00  0.00000000E+00
  0.00000000E+00  0.00000000E+00  0.00000000E+00
  0.00000000E+00  0.00000000E+00  0.00000000E+00
  0.00000000E+00  0.00000000E+00  0.00000000E+00
  0.00000000E+00  0.00000000E+00  0.00000000E+00
  0.00000000E+00  0.00000000E+00  0.00000000E+00
  0.00000000E+00  0.00000000E+00  0.00000000E+00
  0.00000000E+00  0.00000000E+00  0.00000000E+00
  0.00000000E+00  0.00000000E+00  0.00000000E+00
  0.00000000E+00  0.00000000E+00  0.00000000E+00
  0.00000000E+00  0.00000000E+00  0.00000000E+00
  0.00000000E+00  0.00000000E+00  0.00000000E+00
  0.00000000E+00  0.00000000E+00  0.00000000E+00
  0.00000000E+00  0.00000000E+00  0.00000000E+00
  0.00000000E+00  0.00000000E+00  0.00000000E+00
  0.00000000E+00  0.00000000E+00  0.00000000E+00
  0.00000000E+00  0.00000000E+00  0.00000000E+00
  0.00000000E+00  0.00000000E+00  0.00000000E+00
  0.00000000E+00  0.00000000E+00  0.00000000E+00
  0.00000000E+00  0.00000000E+00  0.00000000E+00
  0.00000000E+00  0.00000000E+00  0.00000000E+00
  0.00000000E+00  0.00000000E+00  0.00000000E+00
  0.00000000E+00  0.00000000E+00  0.00000000E+00
  0.00000000E+00  0.00000000E+00  0.00000000E+00
  0.00000000E+00  0.00000000E+00  0.00000000E+00
  0.00000000E+00  0.00000000E+00  0.00000000E+00
  0.00000000E+00  0.00000000E+00  0.00000000E+00
  0.00000000E+00  0.00000000E+00  0.00000000E+00
  0.00000000E+00  0.00000000E+00  0.00000000E+00
  0.00000000E+00  0.00000000E+00  0.00000000E+00
  0.00000000E+00  0.00000000E+00  0.00000000E+00
  0.00000000E+00  0.00000000E+00  0.00000000E+00
  0.00000000E+00  0.00000000E+00  0.00000000E+00
  0.00000000E+00  0.00000000E+00  0.00000000E+00
  0.00000000E+00  0.00000000E+00  0.00000000E+00
  0.00000000E+00  0.00000000E+00  0.00000000E+00
  0.00000000E+00  0.00000000E+00  0.00000000E+00
  0.00000000E+00  0.00000000E+00  0.00000000E+00
  0.00000000E+00  0.00000000E+00  0.00000000E+00
  0.00000000E+00  0.00000000E+00  0.00000000E+00
  0.00000000E+00  0.00000000E+00  0.00000000E+00
  0.00000000E+00  0.00000000E+00  0.00000000E+00
  0.00000000E+00  0.00000000E+00  0.00000000E+00
  0.00000000E+00  0.00000000E+00  0.00000000E+00
  0.00000000E+00  0.00000000E+00  0.00000000E+00
  0.00000000E+00  0.00000000E+00  0.00000000E+00
  0.00000000E+00  0.00000000E+00  0.00000000E+00
  0.00000000E+00  0.00000000E+00  0.00000000E+00
  0.00000000E+00  0.00000000E+00  0.00000000E+00
  0.00000000E+00  0.00000000E+00  0.00000000E+00
  0.00000000E+00  0.00000000E+00  0.00000000E+00
  0.00000000E+00  0.00000000E+00  0.00000000E+00
  0.00000000E+00  0.00000000E+00  0.00000000E+00
  0.00000000E+00  0.00000000E+00  0.00000000E+00
  0.00000000E+00  0.00000000E+00  0.00000000E+00
  0.00000000E+00  0.00000000E+00  0.00000000E+00
  0.00000000E+00  0.00000000E+00  0.00000000E+00
  0.00000000E+00  0.00000000E+00  0.00000000E+00
  0.00000000E+00  0.00000000E+00  0.00000000E+00
  0.00000000E+00  0.00000000E+00  0.00000000E+00
  0.00000000E+00  0.00000000E+00  0.00000000E+00
  0.00000000E+00  0.00000000E+00  0.00000000E+00
  0.00000000E+00  0.00000000E+00  0.00000000E+00
