10.36                                   
   1.00000000000000     
    10.3599996566999994    0.0000000000000000    0.0000000000000000
     5.1799998282999997    8.9720228858999995    0.0000000000000000
     0.0000000000000000    0.0000000000000000   22.0000000000000000
   Pt   Fe   Co   Cu   Ni
    32    13    10    13    12
Direct
  0.7878482939729849  0.8784730692111467  0.3195825388858253
  0.0416887089263724  0.8833351293791765  0.3180167758369876
  0.2791433749351953  0.3804535360488757  0.3220991272167169
  0.8741141485963340  0.9617264476967264  0.4308542386153320
  0.1228269662744239  0.4615189403784399  0.4332361844836967
  0.1240238483535592  0.9614515398029937  0.4250302833746247
  0.8736670246531233  0.4604156061449203  0.4323764164860293
  0.3741919200521053  0.9604258122300351  0.4233960655977143
  0.8739580420505675  0.2113724182621439  0.4231340382302449
  0.1246790126168733  0.2109341496194119  0.4255254621278084
  0.6241154384241270  0.9611469943267821  0.4279338247193536
  0.8739146368993573  0.7106986748658386  0.4307950183373848
  0.3742545265524768  0.2097104694658469  0.4295539207665087
  0.3747460068540818  0.7119057556249473  0.4279872555416944
  0.6247767127613528  0.4613309295654560  0.4260253005540449
  0.1240145499652954  0.7110414821122220  0.4304994397195756
  0.6244202861540771  0.2108441622696802  0.4242736216672682
  0.5477249057800293  0.3765320971683508  0.3182798129517721
  0.5348614871805566  0.1243978082454120  0.3161527581609533
  0.5458014400079705  0.1234550493779807  0.0359400593755197
  0.1219383108327321  0.4607637042083255  0.1261476945822650
  0.0417670224154136  0.1378877758154999  0.3144821066062349
  0.0426177556622562  0.1297797889732522  0.0304909520964713
  0.1298428761097199  0.9585265795496412  0.1305436315386217
  0.3743455190656846  0.4614052855434991  0.4330040903868309
  0.4536142831817429  0.5450805790168403  0.2185534362823631
  0.6229687032516580  0.7113328470961520  0.4266689327505730
  0.9567679528561683  0.7907913211103121  0.2215395440374266
  0.7934291511329832  0.6218697665610904  0.3198262262135643
  0.2921868848248437  0.6316314284281788  0.3199782012632326
  0.2033968113095384  0.2831573253567470  0.2254814981582101
  0.7079943538481999  0.5476533912480193  0.2203153201281864
  0.0401333971155537  0.6302096880914405  0.3284795011115520
  0.7980538117335954  0.8624341141182441  0.0385159092223120
  0.0552849574302030  0.8673564735418466  0.0343513444563968
  0.0474090248428567  0.6263712164493640  0.0327916081573747
  0.6264571710524578  0.2185083723320673  0.1268634264249968
  0.3829453672944680  0.9548385219602480  0.1285988211624201
  0.0352469420258572  0.3836217025966064  0.3270043038006989
  0.0333104805052926  0.3830854889130109  0.0338960332017635
  0.8707331529985609  0.2156009995028825  0.1265163613436897
  0.9554721997325970  0.5448036240795133  0.2234071909178255
  0.2951310464390531  0.1168920659963888  0.3228728517478174
  0.5399549058668285  0.6313987697615033  0.3236166497123207
  0.2949796661083468  0.1207060839374492  0.0354777079668978
  0.5468395352817623  0.6255393754062482  0.0407606834658196
  0.2937150855170785  0.3805059751185382  0.0349060453835079
  0.6256401488195564  0.9526282026047070  0.1307260463583617
  0.7059268653318824  0.7956112008163316  0.2192326928619721
  0.8672931192303821  0.7077434861195258  0.1272654984628758
  0.6257430270259690  0.4611784098849512  0.1254728431769152
  0.2979378001864532  0.8769080757266110  0.3179857261826626
  0.3044523837303572  0.8674590556114765  0.0378147787680732
  0.6276506550672210  0.7130309952935079  0.1270004925719661
  0.2224885567621797  0.0301811762630777  0.2268316968739867
  0.5436321503506392  0.3798759509122860  0.0314790966962235
  0.3785322377904592  0.2050962626428827  0.1304079932188031
  0.1335856850991206  0.7058118502008881  0.1296243496827003
  0.7052232585581493  0.0495490680663977  0.2204402018598728
  0.7924427642668590  0.1301350963634604  0.3181841082877881
  0.5377092315241185  0.8739206804859023  0.3174242404759298
  0.7961477246699786  0.1230227477883119  0.0309807547501677
  0.5459767523396479  0.8695969387497371  0.0336065307945930
  0.2072282577843723  0.5419788292493735  0.2243820184266099
  0.9526128984568842  0.2947893967734316  0.2201704496762531
  0.8718774810630734  0.9624754197990271  0.1273033372013188
  0.7130345180976860  0.2886236761777070  0.2224983166218664
  0.4575250881582136  0.2905277095813190  0.2202344651237524
  0.8748423801908771  0.4570171218602610  0.1258167675964614
  0.1277806656212803  0.2080787861563493  0.1274778483150953
  0.7924830963560225  0.6234970774299171  0.0376528518581978
  0.2975240081653041  0.6248523074090500  0.0387144017041550
  0.3848216830627820  0.7097879869013752  0.1274289244661375
  0.3825565390612340  0.4518961651626014  0.1244171486037402
  0.7924989372995199  0.3784776884309125  0.3212619102798655
  0.7906424157966825  0.3775544735092424  0.0363354318299400
  0.9558869718105001  0.0511319708782736  0.2211004496856290
  0.4577502232252186  0.7969477794345892  0.2237495504741176
  0.2115698532198920  0.7984364491384355  0.2244089375769676
  0.4622948514311744  0.0319863000687803  0.2214779897685943
 
  0.00000000E+00  0.00000000E+00  0.00000000E+00
  0.00000000E+00  0.00000000E+00  0.00000000E+00
  0.00000000E+00  0.00000000E+00  0.00000000E+00
  0.00000000E+00  0.00000000E+00  0.00000000E+00
  0.00000000E+00  0.00000000E+00  0.00000000E+00
  0.00000000E+00  0.00000000E+00  0.00000000E+00
  0.00000000E+00  0.00000000E+00  0.00000000E+00
  0.00000000E+00  0.00000000E+00  0.00000000E+00
  0.00000000E+00  0.00000000E+00  0.00000000E+00
  0.00000000E+00  0.00000000E+00  0.00000000E+00
  0.00000000E+00  0.00000000E+00  0.00000000E+00
  0.00000000E+00  0.00000000E+00  0.00000000E+00
  0.00000000E+00  0.00000000E+00  0.00000000E+00
  0.00000000E+00  0.00000000E+00  0.00000000E+00
  0.00000000E+00  0.00000000E+00  0.00000000E+00
  0.00000000E+00  0.00000000E+00  0.00000000E+00
  0.00000000E+00  0.00000000E+00  0.00000000E+00
  0.00000000E+00  0.00000000E+00  0.00000000E+00
  0.00000000E+00  0.00000000E+00  0.00000000E+00
  0.00000000E+00  0.00000000E+00  0.00000000E+00
  0.00000000E+00  0.00000000E+00  0.00000000E+00
  0.00000000E+00  0.00000000E+00  0.00000000E+00
  0.00000000E+00  0.00000000E+00  0.00000000E+00
  0.00000000E+00  0.00000000E+00  0.00000000E+00
  0.00000000E+00  0.00000000E+00  0.00000000E+00
  0.00000000E+00  0.00000000E+00  0.00000000E+00
  0.00000000E+00  0.00000000E+00  0.00000000E+00
  0.00000000E+00  0.00000000E+00  0.00000000E+00
  0.00000000E+00  0.00000000E+00  0.00000000E+00
  0.00000000E+00  0.00000000E+00  0.00000000E+00
  0.00000000E+00  0.00000000E+00  0.00000000E+00
  0.00000000E+00  0.00000000E+00  0.00000000E+00
  0.00000000E+00  0.00000000E+00  0.00000000E+00
  0.00000000E+00  0.00000000E+00  0.00000000E+00
  0.00000000E+00  0.00000000E+00  0.00000000E+00
  0.00000000E+00  0.00000000E+00  0.00000000E+00
  0.00000000E+00  0.00000000E+00  0.00000000E+00
  0.00000000E+00  0.00000000E+00  0.00000000E+00
  0.00000000E+00  0.00000000E+00  0.00000000E+00
  0.00000000E+00  0.00000000E+00  0.00000000E+00
  0.00000000E+00  0.00000000E+00  0.00000000E+00
  0.00000000E+00  0.00000000E+00  0.00000000E+00
  0.00000000E+00  0.00000000E+00  0.00000000E+00
  0.00000000E+00  0.00000000E+00  0.00000000E+00
  0.00000000E+00  0.00000000E+00  0.00000000E+00
  0.00000000E+00  0.00000000E+00  0.00000000E+00
  0.00000000E+00  0.00000000E+00  0.00000000E+00
  0.00000000E+00  0.00000000E+00  0.00000000E+00
  0.00000000E+00  0.00000000E+00  0.00000000E+00
  0.00000000E+00  0.00000000E+00  0.00000000E+00
  0.00000000E+00  0.00000000E+00  0.00000000E+00
  0.00000000E+00  0.00000000E+00  0.00000000E+00
  0.00000000E+00  0.00000000E+00  0.00000000E+00
  0.00000000E+00  0.00000000E+00  0.00000000E+00
  0.00000000E+00  0.00000000E+00  0.00000000E+00
  0.00000000E+00  0.00000000E+00  0.00000000E+00
  0.00000000E+00  0.00000000E+00  0.00000000E+00
  0.00000000E+00  0.00000000E+00  0.00000000E+00
  0.00000000E+00  0.00000000E+00  0.00000000E+00
  0.00000000E+00  0.00000000E+00  0.00000000E+00
  0.00000000E+00  0.00000000E+00  0.00000000E+00
  0.00000000E+00  0.00000000E+00  0.00000000E+00
  0.00000000E+00  0.00000000E+00  0.00000000E+00
  0.00000000E+00  0.00000000E+00  0.00000000E+00
  0.00000000E+00  0.00000000E+00  0.00000000E+00
  0.00000000E+00  0.00000000E+00  0.00000000E+00
  0.00000000E+00  0.00000000E+00  0.00000000E+00
  0.00000000E+00  0.00000000E+00  0.00000000E+00
  0.00000000E+00  0.00000000E+00  0.00000000E+00
  0.00000000E+00  0.00000000E+00  0.00000000E+00
  0.00000000E+00  0.00000000E+00  0.00000000E+00
  0.00000000E+00  0.00000000E+00  0.00000000E+00
  0.00000000E+00  0.00000000E+00  0.00000000E+00
  0.00000000E+00  0.00000000E+00  0.00000000E+00
  0.00000000E+00  0.00000000E+00  0.00000000E+00
  0.00000000E+00  0.00000000E+00  0.00000000E+00
  0.00000000E+00  0.00000000E+00  0.00000000E+00
  0.00000000E+00  0.00000000E+00  0.00000000E+00
  0.00000000E+00  0.00000000E+00  0.00000000E+00
  0.00000000E+00  0.00000000E+00  0.00000000E+00
