Ni   Pt   H                             
   1.00000000000000     
    10.5600004195999997    0.0000000000000000    0.0000000000000000
     5.2800002097999998    9.1452286273999999    0.0000000000000000
     0.0000000000000000    0.0000000000000000   22.0000000000000000
   Ni   Pt   H 
    64    16     2
Selective dynamics
Direct
  0.7859297821617087  0.8686433909121390  0.3110448335495316   T   T   T
  0.0359022996488723  0.8686900598839483  0.3110579338632040   T   T   T
  0.0359757673659562  0.6185813060912468  0.3110536147597826   T   T   T
  0.7874164227977971  0.8671974162722194  0.0507952848136384   F   F   F
  0.0371812071091995  0.8676186467801656  0.0508907119909097   F   F   F
  0.0374684841738073  0.6171956253437827  0.0509625431272696   F   F   F
  0.6195540567074858  0.2015927253995997  0.1375472916636369   F   F   F
  0.3695075232167966  0.9518242491084408  0.1375177793318159   F   F   F
  0.0360872787037079  0.3684556201389505  0.3110771182572636   T   T   T
  0.0370441529486243  0.3679087439453710  0.0510122538363618   F   F   F
  0.8696832728241688  0.2017788834137235  0.1375957440090900   F   F   F
  0.9527689322780971  0.5351569967219965  0.2251996680696909   T   T   T
  0.2859768655480634  0.1186168308145583  0.3110540276803907   T   T   T
  0.5362565251467729  0.6189291763071215  0.3103471268190988   T   T   T
  0.2857779260314225  0.3683583836751263  0.3109288321966708   T   T   T
  0.2865437969577087  0.1185517643978500  0.0509036111818162   F   F   F
  0.5363140996786200  0.6178282872416645  0.0507770374954575   F   F   F
  0.2861704337189792  0.3683748117358761  0.0510002003863619   F   F   F
  0.6196234901564495  0.9517335769848856  0.1373589130318180   F   F   F
  0.7025783052772185  0.7853917529004559  0.2250161858321216   T   T   T
  0.8696404260012258  0.7014772441204471  0.1376145676590923   F   F   F
  0.6196299646022467  0.4516165522451487  0.1375203790909083   F   F   F
  0.2859062657553204  0.8689489403525823  0.3108804406643748   T   T   T
  0.2865937880566349  0.8680734555957201  0.0508346510318205   F   F   F
  0.6194335686725978  0.7016555716469099  0.1373394372999996   F   F   F
  0.2028690399353708  0.0350273466701412  0.2251617503264559   T   T   T
  0.5358262671572814  0.3684897543804359  0.3106979090404768   T   T   T
  0.5363670832523084  0.3680933396912849  0.0508732332090887   F   F   F
  0.5359642627575423  0.1185788258343324  0.3110300357107259   T   T   T
  0.5357740562855895  0.1186998764413190  0.0508076041818200   F   F   F
  0.8695889210879457  0.4517664038733358  0.1377370143909076   F   F   F
  0.1194625732134043  0.4516968078549155  0.1379299702136336   F   F   F
  0.0360268293826890  0.1185913684847844  0.3110322896684071   T   T   T
  0.0372294765921879  0.1183068973757955  0.0509084329409077   F   F   F
  0.1194236500933172  0.9519185222901285  0.1376218898500028   F   F   F
  0.4526051753735357  0.5353497552279359  0.2249022054479418   T   T   T
  0.3693977441760410  0.2019043691557201  0.1377741168545441   F   F   F
  0.1196225089457670  0.2018141881625866  0.1378220913363606   F   F   F
  0.9526678430231259  0.7851974614367946  0.2251406699058270   T   T   T
  0.7862082991354136  0.6184860407900085  0.3109219104994878   T   T   T
  0.2857684507398248  0.6185845130657848  0.3107242332309482   T   T   T
  0.7873265514095209  0.6175143423293008  0.0508263513318212   F   F   F
  0.2865996923037599  0.6174998734400674  0.0509254706590880   F   F   F
  0.3692545354116845  0.7017889581208507  0.1375475984363632   F   F   F
  0.3695484132066582  0.4516338335080263  0.1377474529818201   F   F   F
  0.2027606372439299  0.2850384434807028  0.2252363364101717   T   T   T
  0.7862068183377598  0.3686384622318899  0.3108351294983316   T   T   T
  0.7871940568885378  0.3681532496423969  0.0508772485772724   F   F   F
  0.9526381443816507  0.0351567638122714  0.2251290983915875   T   T   T
  0.4525381711577948  0.7856859597424858  0.2248672552891456   T   T   T
  0.7028198708593307  0.5354119146722889  0.2248882454248190   T   T   T
  0.2024854145242256  0.7855077685727622  0.2250216503477430   T   T   T
  0.4528244861477458  0.0352191172515983  0.2250774669208465   T   T   T
  0.1194697833192677  0.7016886593380178  0.1377196208045461   F   F   F
  0.7027119741031335  0.0351587456422337  0.2250798679500622   T   T   T
  0.7859809036723578  0.1186061866526680  0.3110167402621908   T   T   T
  0.5357103497321504  0.8689438099017927  0.3109230171496541   T   T   T
  0.7868336547289516  0.1183080422132221  0.0508386848136340   F   F   F
  0.5365155299928688  0.8682561142222056  0.0507168413227248   F   F   F
  0.2027195514399261  0.5351545088081631  0.2251479251558496   T   T   T
  0.9525740975115058  0.2851555302399246  0.2251858480476404   T   T   T
  0.8694806842594929  0.9517801275761713  0.1375034099181818   F   F   F
  0.7027728228580252  0.2851743721658365  0.2249914016355155   T   T   T
  0.4528189195151073  0.2850663856295874  0.2250994312057533   T   T   T
  0.8693588929855519  0.9516926434516749  0.4084147963893621   T   T   T
  0.1193751361100409  0.4516676237280728  0.4083323793365794   T   T   T
  0.1192233471351735  0.9518796888474513  0.4083319207349211   T   T   T
  0.8695459456389298  0.4516712006140375  0.4083070629011925   T   T   T
  0.3693853745942043  0.9518450843125663  0.4083496236299551   T   T   T
  0.8695520190747550  0.2015352198496279  0.4082713053249125   T   T   T
  0.1194074054811594  0.2016912233185061  0.4084028126732757   T   T   T
  0.6194169008585430  0.9517458228491592  0.4083353525604864   T   T   T
  0.8694439153794353  0.7017375715374490  0.4083316080022852   T   T   T
  0.3693643043376337  0.2016725525285752  0.4083338899969092   T   T   T
  0.3690467601249761  0.7020187432044908  0.4068960068737993   T   T   T
  0.6196667400028237  0.4513789275163991  0.4068657695904515   T   T   T
  0.1192148150308176  0.7017661969730228  0.4082498907905398   T   T   T
  0.6194419590016190  0.2015233818091399  0.4082140821961084   T   T   T
  0.3692400539691651  0.4515440943274063  0.4077762312819440   T   T   T
  0.6196165922823769  0.7018629437147970  0.4076829298635943   T   T   T
  0.4730549987030215  0.5558228448535200  0.5246094932170117   T   T   T
  0.5152010268930470  0.5962333631598824  0.5251278467278621   T   T   T
 
  0.00000000E+00  0.00000000E+00  0.00000000E+00
  0.00000000E+00  0.00000000E+00  0.00000000E+00
  0.00000000E+00  0.00000000E+00  0.00000000E+00
  0.00000000E+00  0.00000000E+00  0.00000000E+00
  0.00000000E+00  0.00000000E+00  0.00000000E+00
  0.00000000E+00  0.00000000E+00  0.00000000E+00
  0.00000000E+00  0.00000000E+00  0.00000000E+00
  0.00000000E+00  0.00000000E+00  0.00000000E+00
  0.00000000E+00  0.00000000E+00  0.00000000E+00
  0.00000000E+00  0.00000000E+00  0.00000000E+00
  0.00000000E+00  0.00000000E+00  0.00000000E+00
  0.00000000E+00  0.00000000E+00  0.00000000E+00
  0.00000000E+00  0.00000000E+00  0.00000000E+00
  0.00000000E+00  0.00000000E+00  0.00000000E+00
  0.00000000E+00  0.00000000E+00  0.00000000E+00
  0.00000000E+00  0.00000000E+00  0.00000000E+00
  0.00000000E+00  0.00000000E+00  0.00000000E+00
  0.00000000E+00  0.00000000E+00  0.00000000E+00
  0.00000000E+00  0.00000000E+00  0.00000000E+00
  0.00000000E+00  0.00000000E+00  0.00000000E+00
  0.00000000E+00  0.00000000E+00  0.00000000E+00
  0.00000000E+00  0.00000000E+00  0.00000000E+00
  0.00000000E+00  0.00000000E+00  0.00000000E+00
  0.00000000E+00  0.00000000E+00  0.00000000E+00
  0.00000000E+00  0.00000000E+00  0.00000000E+00
  0.00000000E+00  0.00000000E+00  0.00000000E+00
  0.00000000E+00  0.00000000E+00  0.00000000E+00
  0.00000000E+00  0.00000000E+00  0.00000000E+00
  0.00000000E+00  0.00000000E+00  0.00000000E+00
  0.00000000E+00  0.00000000E+00  0.00000000E+00
  0.00000000E+00  0.00000000E+00  0.00000000E+00
  0.00000000E+00  0.00000000E+00  0.00000000E+00
  0.00000000E+00  0.00000000E+00  0.00000000E+00
  0.00000000E+00  0.00000000E+00  0.00000000E+00
  0.00000000E+00  0.00000000E+00  0.00000000E+00
  0.00000000E+00  0.00000000E+00  0.00000000E+00
  0.00000000E+00  0.00000000E+00  0.00000000E+00
  0.00000000E+00  0.00000000E+00  0.00000000E+00
  0.00000000E+00  0.00000000E+00  0.00000000E+00
  0.00000000E+00  0.00000000E+00  0.00000000E+00
  0.00000000E+00  0.00000000E+00  0.00000000E+00
  0.00000000E+00  0.00000000E+00  0.00000000E+00
  0.00000000E+00  0.00000000E+00  0.00000000E+00
  0.00000000E+00  0.00000000E+00  0.00000000E+00
  0.00000000E+00  0.00000000E+00  0.00000000E+00
  0.00000000E+00  0.00000000E+00  0.00000000E+00
  0.00000000E+00  0.00000000E+00  0.00000000E+00
  0.00000000E+00  0.00000000E+00  0.00000000E+00
  0.00000000E+00  0.00000000E+00  0.00000000E+00
  0.00000000E+00  0.00000000E+00  0.00000000E+00
  0.00000000E+00  0.00000000E+00  0.00000000E+00
  0.00000000E+00  0.00000000E+00  0.00000000E+00
  0.00000000E+00  0.00000000E+00  0.00000000E+00
  0.00000000E+00  0.00000000E+00  0.00000000E+00
  0.00000000E+00  0.00000000E+00  0.00000000E+00
  0.00000000E+00  0.00000000E+00  0.00000000E+00
  0.00000000E+00  0.00000000E+00  0.00000000E+00
  0.00000000E+00  0.00000000E+00  0.00000000E+00
  0.00000000E+00  0.00000000E+00  0.00000000E+00
  0.00000000E+00  0.00000000E+00  0.00000000E+00
  0.00000000E+00  0.00000000E+00  0.00000000E+00
  0.00000000E+00  0.00000000E+00  0.00000000E+00
  0.00000000E+00  0.00000000E+00  0.00000000E+00
  0.00000000E+00  0.00000000E+00  0.00000000E+00
  0.00000000E+00  0.00000000E+00  0.00000000E+00
  0.00000000E+00  0.00000000E+00  0.00000000E+00
  0.00000000E+00  0.00000000E+00  0.00000000E+00
  0.00000000E+00  0.00000000E+00  0.00000000E+00
  0.00000000E+00  0.00000000E+00  0.00000000E+00
  0.00000000E+00  0.00000000E+00  0.00000000E+00
  0.00000000E+00  0.00000000E+00  0.00000000E+00
  0.00000000E+00  0.00000000E+00  0.00000000E+00
  0.00000000E+00  0.00000000E+00  0.00000000E+00
  0.00000000E+00  0.00000000E+00  0.00000000E+00
  0.00000000E+00  0.00000000E+00  0.00000000E+00
  0.00000000E+00  0.00000000E+00  0.00000000E+00
  0.00000000E+00  0.00000000E+00  0.00000000E+00
  0.00000000E+00  0.00000000E+00  0.00000000E+00
  0.00000000E+00  0.00000000E+00  0.00000000E+00
  0.00000000E+00  0.00000000E+00  0.00000000E+00
  0.00000000E+00  0.00000000E+00  0.00000000E+00
  0.00000000E+00  0.00000000E+00  0.00000000E+00
