Pt   H                                  
   1.00000000000000     
    11.2227001190000006    0.0000000000000000    0.0000000000000000
     5.6113500595000003    9.7191434021000003    0.0000000000000000
     0.0000000000000000    0.0000000000000000   22.0000000000000000
   Pt   H 
    80    17
Direct
  0.7854946110216616  0.8691367633624907  0.3262064056772616
  0.0353130348950614  0.8688391666390203  0.3265428755115352
  0.0354802285495666  0.6185803226499615  0.3261815256625198
  0.7851586088095175  0.8687801781423019  0.0214619808152818
  0.0351266820220246  0.8688040773092638  0.0215741289037794
  0.0353718144641064  0.6185727263795542  0.0214435215632065
  0.6185539892605547  0.2021021910457890  0.1246687398904456
  0.3681473493378675  0.9522402718543006  0.1248145646874548
  0.0353734841300835  0.3686092340541123  0.3263981092904160
  0.0354594129955217  0.3680679707028602  0.0214012587105685
  0.8685752074860247  0.2020431745967457  0.1250156064991117
  0.9521500866632877  0.5350320243850888  0.2247671620397256
  0.2850590123449592  0.1188531890766171  0.3263960079370918
  0.5354268266515732  0.6189316214049470  0.3261929306177578
  0.2847726562126738  0.3683237372123642  0.3252725438629369
  0.2844188594756361  0.1190133873825374  0.0214873827555309
  0.5350634417474396  0.6184944537354795  0.0212440863035397
  0.2849255898486689  0.3684358727240280  0.0212558133164080
  0.6184282543293591  0.9520192343003586  0.1247742967388632
  0.7018823651845310  0.7853872186810875  0.2247687559607598
  0.8684483158327296  0.7020291411566433  0.1247128506824566
  0.6187378963197929  0.4519706488606872  0.1246908340967039
  0.2862126931425664  0.8669342714465529  0.3273037811077302
  0.2850443897405270  0.8690293629768107  0.0214200908925335
  0.6183923074263689  0.7020718822270027  0.1245919220565170
  0.2023393666549467  0.0338452944848697  0.2258444017665155
  0.8691047402550609  0.9526274025342047  0.4325108448251598
  0.1197014911088132  0.4525305897548932  0.4322605251460701
  0.1187265259457320  0.9527399809037433  0.4330087692344833
  0.8700954750418077  0.4523729782146830  0.4323046064189739
  0.3688260395842420  0.9536490652293637  0.4322801406282508
  0.8692223399829260  0.2022514075536890  0.4329527018257338
  0.1189468174808326  0.2025633410905456  0.4322990640448836
  0.6192364628848495  0.9535808904358163  0.4321903036613080
  0.8698948902345762  0.7028299854290196  0.4322120175342263
  0.3688739792682298  0.2033024425202967  0.4322506178608378
  0.3700808480391515  0.7012089113987088  0.4329610356484750
  0.6176083568803747  0.4536921744292002  0.4330236836270984
  0.1196296134780752  0.7022128283608993  0.4322129331504954
  0.6185986334319651  0.2032563633929456  0.4322013071923578
  0.5350737441149178  0.3687914898103628  0.3261672083667406
  0.5351920347381807  0.3690685140662424  0.0213867107572057
  0.5350614434907399  0.1190104404968082  0.3261839776528106
  0.5351160482747090  0.1188000695192528  0.0214949960789568
  0.8687423776618601  0.4516693179404854  0.1248233997257060
  0.1182691868156667  0.4519711622766707  0.1245451693280657
  0.0352114021620196  0.1186010730416740  0.3268251978035508
  0.0355132114914483  0.1190508317456107  0.0217440146601504
  0.1184348563072248  0.9520846487581025  0.1249808717357865
  0.3694517342116583  0.4529866525042721  0.4302444940005543
  0.4518704848951813  0.5355498581079843  0.2248031132135324
  0.6201338963709446  0.7038096079929019  0.4308019959477818
  0.3684276197879370  0.2018972486612824  0.1245511900824425
  0.1182090756000278  0.2018491871357924  0.1255099588874913
  0.9518757744157753  0.7853653727322936  0.2248695403891574
  0.7861753775482541  0.6186703377663889  0.3260611535405573
  0.2851693511066458  0.6185928260467861  0.3261662671175785
  0.7850421481262586  0.6186444773438851  0.0216118018346947
  0.2856123793304235  0.6187355064288482  0.0213994436429346
  0.3683926193203675  0.7022845318228832  0.1246361001470859
  0.3683394245846969  0.4518841626729539  0.1244030689042219
  0.2017068821736530  0.2852151766242912  0.2247653644530914
  0.7834205447092515  0.3698061543628555  0.3273376579452574
  0.7854534455506439  0.3686278838604267  0.0214379978118373
  0.9517607299125501  0.0353504643528169  0.2251672588075451
  0.4520299822196279  0.7852426232528131  0.2248781090123018
  0.7017137848320729  0.5356432899197188  0.2248910955981529
  0.2018308449937010  0.7852180703987202  0.2250088190198198
  0.4514161167677457  0.0357679019833839  0.2247747398160413
  0.1184186530310001  0.7021708657171928  0.1246151012976213
  0.7018256825290621  0.0355048392377526  0.2248720112729004
  0.7852896665273548  0.1188725972043585  0.3265567662563171
  0.5351123269065070  0.8697226190762635  0.3260326702118874
  0.7853081961514050  0.1186847742184227  0.0216988692531572
  0.5351205802714532  0.8686340875528629  0.0215543060916801
  0.2018572434240724  0.5358076743146114  0.2245308555813423
  0.9503596615953853  0.2858541492793520  0.2258734685211863
  0.8684756412937205  0.9519553948725701  0.1248338558325131
  0.7017184717086806  0.2854188900372350  0.2250512384107779
  0.4522157718221038  0.2854692570621253  0.2245723782748357
  0.4554451801800141  0.5375046221069297  0.4995191263783880
  0.4980418709488887  0.5817086557746975  0.5081913642496119
  0.7117517028246780  0.5383139775026535  0.4724562398220158
  0.2001962766790228  0.7876384614102818  0.4731317532113337
  0.4544668207652620  0.7952913402750070  0.4724596394083989
  0.7028369365566647  0.7865669355890788  0.4726263068892251
  0.9528940204147034  0.7855553909672750  0.4732232037969624
  0.2048787525343911  0.5348898588497875  0.4726405137408705
  0.9532069693368328  0.5360495700197205  0.4730218110539468
  0.2022882884608421  0.2858978166385242  0.4730957563179530
  0.4512532566582905  0.2884484713938278  0.4726444598122441
  0.7042232938486208  0.2836162178594606  0.4730981689631193
  0.9515821862392215  0.2860412546111704  0.4734708392744551
  0.2024869981616320  0.0351966487762354  0.4734561236234640
  0.4524382776716607  0.0368084784929437  0.4730101728357354
  0.7019900349215504  0.0365533398390525  0.4732116400225621
  0.9522207732243402  0.0357327105700307  0.4737543595774270
 
  0.00000000E+00  0.00000000E+00  0.00000000E+00
  0.00000000E+00  0.00000000E+00  0.00000000E+00
  0.00000000E+00  0.00000000E+00  0.00000000E+00
  0.00000000E+00  0.00000000E+00  0.00000000E+00
  0.00000000E+00  0.00000000E+00  0.00000000E+00
  0.00000000E+00  0.00000000E+00  0.00000000E+00
  0.00000000E+00  0.00000000E+00  0.00000000E+00
  0.00000000E+00  0.00000000E+00  0.00000000E+00
  0.00000000E+00  0.00000000E+00  0.00000000E+00
  0.00000000E+00  0.00000000E+00  0.00000000E+00
  0.00000000E+00  0.00000000E+00  0.00000000E+00
  0.00000000E+00  0.00000000E+00  0.00000000E+00
  0.00000000E+00  0.00000000E+00  0.00000000E+00
  0.00000000E+00  0.00000000E+00  0.00000000E+00
  0.00000000E+00  0.00000000E+00  0.00000000E+00
  0.00000000E+00  0.00000000E+00  0.00000000E+00
  0.00000000E+00  0.00000000E+00  0.00000000E+00
  0.00000000E+00  0.00000000E+00  0.00000000E+00
  0.00000000E+00  0.00000000E+00  0.00000000E+00
  0.00000000E+00  0.00000000E+00  0.00000000E+00
  0.00000000E+00  0.00000000E+00  0.00000000E+00
  0.00000000E+00  0.00000000E+00  0.00000000E+00
  0.00000000E+00  0.00000000E+00  0.00000000E+00
  0.00000000E+00  0.00000000E+00  0.00000000E+00
  0.00000000E+00  0.00000000E+00  0.00000000E+00
  0.00000000E+00  0.00000000E+00  0.00000000E+00
  0.00000000E+00  0.00000000E+00  0.00000000E+00
  0.00000000E+00  0.00000000E+00  0.00000000E+00
  0.00000000E+00  0.00000000E+00  0.00000000E+00
  0.00000000E+00  0.00000000E+00  0.00000000E+00
  0.00000000E+00  0.00000000E+00  0.00000000E+00
  0.00000000E+00  0.00000000E+00  0.00000000E+00
  0.00000000E+00  0.00000000E+00  0.00000000E+00
  0.00000000E+00  0.00000000E+00  0.00000000E+00
  0.00000000E+00  0.00000000E+00  0.00000000E+00
  0.00000000E+00  0.00000000E+00  0.00000000E+00
  0.00000000E+00  0.00000000E+00  0.00000000E+00
  0.00000000E+00  0.00000000E+00  0.00000000E+00
  0.00000000E+00  0.00000000E+00  0.00000000E+00
  0.00000000E+00  0.00000000E+00  0.00000000E+00
  0.00000000E+00  0.00000000E+00  0.00000000E+00
  0.00000000E+00  0.00000000E+00  0.00000000E+00
  0.00000000E+00  0.00000000E+00  0.00000000E+00
  0.00000000E+00  0.00000000E+00  0.00000000E+00
  0.00000000E+00  0.00000000E+00  0.00000000E+00
  0.00000000E+00  0.00000000E+00  0.00000000E+00
  0.00000000E+00  0.00000000E+00  0.00000000E+00
  0.00000000E+00  0.00000000E+00  0.00000000E+00
  0.00000000E+00  0.00000000E+00  0.00000000E+00
  0.00000000E+00  0.00000000E+00  0.00000000E+00
  0.00000000E+00  0.00000000E+00  0.00000000E+00
  0.00000000E+00  0.00000000E+00  0.00000000E+00
  0.00000000E+00  0.00000000E+00  0.00000000E+00
  0.00000000E+00  0.00000000E+00  0.00000000E+00
  0.00000000E+00  0.00000000E+00  0.00000000E+00
  0.00000000E+00  0.00000000E+00  0.00000000E+00
  0.00000000E+00  0.00000000E+00  0.00000000E+00
  0.00000000E+00  0.00000000E+00  0.00000000E+00
  0.00000000E+00  0.00000000E+00  0.00000000E+00
  0.00000000E+00  0.00000000E+00  0.00000000E+00
  0.00000000E+00  0.00000000E+00  0.00000000E+00
  0.00000000E+00  0.00000000E+00  0.00000000E+00
  0.00000000E+00  0.00000000E+00  0.00000000E+00
  0.00000000E+00  0.00000000E+00  0.00000000E+00
  0.00000000E+00  0.00000000E+00  0.00000000E+00
  0.00000000E+00  0.00000000E+00  0.00000000E+00
  0.00000000E+00  0.00000000E+00  0.00000000E+00
  0.00000000E+00  0.00000000E+00  0.00000000E+00
  0.00000000E+00  0.00000000E+00  0.00000000E+00
  0.00000000E+00  0.00000000E+00  0.00000000E+00
  0.00000000E+00  0.00000000E+00  0.00000000E+00
  0.00000000E+00  0.00000000E+00  0.00000000E+00
  0.00000000E+00  0.00000000E+00  0.00000000E+00
  0.00000000E+00  0.00000000E+00  0.00000000E+00
  0.00000000E+00  0.00000000E+00  0.00000000E+00
  0.00000000E+00  0.00000000E+00  0.00000000E+00
  0.00000000E+00  0.00000000E+00  0.00000000E+00
  0.00000000E+00  0.00000000E+00  0.00000000E+00
  0.00000000E+00  0.00000000E+00  0.00000000E+00
  0.00000000E+00  0.00000000E+00  0.00000000E+00
  0.00000000E+00  0.00000000E+00  0.00000000E+00
  0.00000000E+00  0.00000000E+00  0.00000000E+00
  0.00000000E+00  0.00000000E+00  0.00000000E+00
  0.00000000E+00  0.00000000E+00  0.00000000E+00
  0.00000000E+00  0.00000000E+00  0.00000000E+00
  0.00000000E+00  0.00000000E+00  0.00000000E+00
  0.00000000E+00  0.00000000E+00  0.00000000E+00
  0.00000000E+00  0.00000000E+00  0.00000000E+00
  0.00000000E+00  0.00000000E+00  0.00000000E+00
  0.00000000E+00  0.00000000E+00  0.00000000E+00
  0.00000000E+00  0.00000000E+00  0.00000000E+00
  0.00000000E+00  0.00000000E+00  0.00000000E+00
  0.00000000E+00  0.00000000E+00  0.00000000E+00
  0.00000000E+00  0.00000000E+00  0.00000000E+00
  0.00000000E+00  0.00000000E+00  0.00000000E+00
  0.00000000E+00  0.00000000E+00  0.00000000E+00
  0.00000000E+00  0.00000000E+00  0.00000000E+00
