Pt   H                                  
   1.00000000000000     
    11.2227001190000006    0.0000000000000000    0.0000000000000000
     5.6113500595000003    9.7191434021000003    0.0000000000000000
     0.0000000000000000    0.0000000000000000   22.0000000000000000
   Pt   H 
    80     2
Direct
  0.7851182928837286  0.8691248665977803  0.3269825226806886
  0.0352842118796725  0.8688603399561096  0.3272849747071579
  0.0355286361198529  0.6189525337737881  0.3269223081323664
  0.7857119833746190  0.8683960590019288  0.0234434147978424
  0.0362372064331422  0.8684596622903398  0.0233612794017947
  0.0359903634764629  0.6183977448019990  0.0232814442680682
  0.6190019935622768  0.2020246540565135  0.1264561258092622
  0.3689456290503199  0.9514289415512699  0.1267086084895463
  0.0343796591335365  0.3690231797563817  0.3271596007637068
  0.0356778390080353  0.3687624098893144  0.0236282294531352
  0.8687761211017709  0.2021515351410155  0.1266647573294071
  0.9519337068282231  0.5354304837242712  0.2268401478157026
  0.2850749318379573  0.1182575455508258  0.3272147251693371
  0.5348491550947220  0.6186810751381517  0.3293221530397920
  0.2855201990558910  0.3695401597672126  0.3270923432146213
  0.2861260607578577  0.1182954457183180  0.0236556390857187
  0.5359109133361118  0.6184835753939286  0.0237059184555819
  0.2858810761487993  0.3686036901619746  0.0234370660916837
  0.6186768560643167  0.9521737041739903  0.1263975647906157
  0.7017880051254348  0.7853178095408452  0.2267829270274643
  0.8690928503150553  0.7018132142153967  0.1263772631036495
  0.6185898975527151  0.4521350783132072  0.1268407952324054
  0.2868908257913770  0.8655320957630481  0.3292852184451118
  0.2858932331247006  0.8685288828541249  0.0235522252955667
  0.6187391485471886  0.7019405093317901  0.1265659168999479
  0.2018052814864489  0.0351933523007613  0.2272064284209290
  0.8683868235154273  0.9526744892421263  0.4301914154403801
  0.1178658830338675  0.4525429483151763  0.4298880191146311
  0.1178610751991929  0.9524298526670866  0.4306133132634574
  0.8706944294654063  0.4517482451903886  0.4303293337245084
  0.3674483516989025  0.9549634906841602  0.4304069343490998
  0.8681859545177395  0.2021622551605218  0.4306215002612493
  0.1178444976834093  0.2021871744175949  0.4299961373235862
  0.6183520413525639  0.9530741828517794  0.4299991666906112
  0.8687149615347268  0.7027536719246510  0.4299718433193283
  0.3681826799820507  0.2022660308716539  0.4299034367246378
  0.3681122383016017  0.7036497285294006  0.4388120515587432
  0.6200657109178901  0.4517332374319586  0.4384197766055388
  0.1164984923813097  0.7032810026887035  0.4301819469626521
  0.6188751223952065  0.2008114864217830  0.4302199664832752
  0.5351834874075412  0.3701818550107377  0.3288437391422625
  0.5359635831160396  0.3684848301384646  0.0235155578524142
  0.5350175585846354  0.1193886280139033  0.3269381566905567
  0.5358332555002733  0.1185478221384843  0.0233042118568788
  0.8683342318998299  0.4520605089586982  0.1266941915755825
  0.1190621127725325  0.4518782228164055  0.1263645237060931
  0.0348087055400476  0.1186516374126848  0.3274172004182617
  0.0358135224879094  0.1183428826818523  0.0234144454231449
  0.1189917741993107  0.9518983083303280  0.1266659617880493
  0.3655821631110887  0.4497644510531074  0.4319210514239438
  0.4519130835438726  0.5355477454029492  0.2277818149707824
  0.6210282643256367  0.7051431418910405  0.4319920630628731
  0.3687679648321585  0.2021941683808134  0.1263735426884741
  0.1186519321540698  0.2017906641694196  0.1261762568620506
  0.9520791315947581  0.7855485468681158  0.2267165578703728
  0.7844401543446893  0.6192198717374076  0.3274651095857288
  0.2863007420660476  0.6191309386639380  0.3288918081374211
  0.7859640991086919  0.6183608333954176  0.0234188692267328
  0.2858683983014212  0.6185765453358529  0.0235354890771048
  0.3690188353806449  0.7017354339967133  0.1268578133481697
  0.3691690103439255  0.4522454778223349  0.1265980845340449
  0.2016212452738326  0.2851097927577443  0.2269913758957219
  0.7817937985482154  0.3707194173685480  0.3291255246502384
  0.7858492005715091  0.3685660383190783  0.0235375381865182
  0.9518294942839406  0.0354641131412103  0.2269808573573001
  0.4516792786624820  0.7853969225767459  0.2274161039279639
  0.7018400680528656  0.5352775501040729  0.2273606445302279
  0.2026083933475771  0.7851685411654471  0.2274188190024557
  0.4517950191379376  0.0355221814833633  0.2268614111142181
  0.1188933541255664  0.7021727577440570  0.1264403015020506
  0.7019639002669089  0.0356420024280753  0.2267289634410643
  0.7848507759122324  0.1192419257369712  0.3273181716021461
  0.5353035300201604  0.8683554781674657  0.3274999939133207
  0.7858511398137160  0.1188334323239472  0.0233877413134409
  0.5357588137778023  0.8685660781827887  0.0234208043461149
  0.2021321777232311  0.5355591581770309  0.2267410216554453
  0.9516929239897447  0.2853125533105388  0.2271883032468517
  0.8689922925389363  0.9520552753858769  0.1262758441950671
  0.7015993380218857  0.2861432432096448  0.2273995216649952
  0.4519598671484525  0.2857095575007367  0.2267662978641629
  0.4595930621120656  0.5450054937584271  0.4884708649975504
  0.5267366869864776  0.6126217067782314  0.4882468972648192
 
  0.00000000E+00  0.00000000E+00  0.00000000E+00
  0.00000000E+00  0.00000000E+00  0.00000000E+00
  0.00000000E+00  0.00000000E+00  0.00000000E+00
  0.00000000E+00  0.00000000E+00  0.00000000E+00
  0.00000000E+00  0.00000000E+00  0.00000000E+00
  0.00000000E+00  0.00000000E+00  0.00000000E+00
  0.00000000E+00  0.00000000E+00  0.00000000E+00
  0.00000000E+00  0.00000000E+00  0.00000000E+00
  0.00000000E+00  0.00000000E+00  0.00000000E+00
  0.00000000E+00  0.00000000E+00  0.00000000E+00
  0.00000000E+00  0.00000000E+00  0.00000000E+00
  0.00000000E+00  0.00000000E+00  0.00000000E+00
  0.00000000E+00  0.00000000E+00  0.00000000E+00
  0.00000000E+00  0.00000000E+00  0.00000000E+00
  0.00000000E+00  0.00000000E+00  0.00000000E+00
  0.00000000E+00  0.00000000E+00  0.00000000E+00
  0.00000000E+00  0.00000000E+00  0.00000000E+00
  0.00000000E+00  0.00000000E+00  0.00000000E+00
  0.00000000E+00  0.00000000E+00  0.00000000E+00
  0.00000000E+00  0.00000000E+00  0.00000000E+00
  0.00000000E+00  0.00000000E+00  0.00000000E+00
  0.00000000E+00  0.00000000E+00  0.00000000E+00
  0.00000000E+00  0.00000000E+00  0.00000000E+00
  0.00000000E+00  0.00000000E+00  0.00000000E+00
  0.00000000E+00  0.00000000E+00  0.00000000E+00
  0.00000000E+00  0.00000000E+00  0.00000000E+00
  0.00000000E+00  0.00000000E+00  0.00000000E+00
  0.00000000E+00  0.00000000E+00  0.00000000E+00
  0.00000000E+00  0.00000000E+00  0.00000000E+00
  0.00000000E+00  0.00000000E+00  0.00000000E+00
  0.00000000E+00  0.00000000E+00  0.00000000E+00
  0.00000000E+00  0.00000000E+00  0.00000000E+00
  0.00000000E+00  0.00000000E+00  0.00000000E+00
  0.00000000E+00  0.00000000E+00  0.00000000E+00
  0.00000000E+00  0.00000000E+00  0.00000000E+00
  0.00000000E+00  0.00000000E+00  0.00000000E+00
  0.00000000E+00  0.00000000E+00  0.00000000E+00
  0.00000000E+00  0.00000000E+00  0.00000000E+00
  0.00000000E+00  0.00000000E+00  0.00000000E+00
  0.00000000E+00  0.00000000E+00  0.00000000E+00
  0.00000000E+00  0.00000000E+00  0.00000000E+00
  0.00000000E+00  0.00000000E+00  0.00000000E+00
  0.00000000E+00  0.00000000E+00  0.00000000E+00
  0.00000000E+00  0.00000000E+00  0.00000000E+00
  0.00000000E+00  0.00000000E+00  0.00000000E+00
  0.00000000E+00  0.00000000E+00  0.00000000E+00
  0.00000000E+00  0.00000000E+00  0.00000000E+00
  0.00000000E+00  0.00000000E+00  0.00000000E+00
  0.00000000E+00  0.00000000E+00  0.00000000E+00
  0.00000000E+00  0.00000000E+00  0.00000000E+00
  0.00000000E+00  0.00000000E+00  0.00000000E+00
  0.00000000E+00  0.00000000E+00  0.00000000E+00
  0.00000000E+00  0.00000000E+00  0.00000000E+00
  0.00000000E+00  0.00000000E+00  0.00000000E+00
  0.00000000E+00  0.00000000E+00  0.00000000E+00
  0.00000000E+00  0.00000000E+00  0.00000000E+00
  0.00000000E+00  0.00000000E+00  0.00000000E+00
  0.00000000E+00  0.00000000E+00  0.00000000E+00
  0.00000000E+00  0.00000000E+00  0.00000000E+00
  0.00000000E+00  0.00000000E+00  0.00000000E+00
  0.00000000E+00  0.00000000E+00  0.00000000E+00
  0.00000000E+00  0.00000000E+00  0.00000000E+00
  0.00000000E+00  0.00000000E+00  0.00000000E+00
  0.00000000E+00  0.00000000E+00  0.00000000E+00
  0.00000000E+00  0.00000000E+00  0.00000000E+00
  0.00000000E+00  0.00000000E+00  0.00000000E+00
  0.00000000E+00  0.00000000E+00  0.00000000E+00
  0.00000000E+00  0.00000000E+00  0.00000000E+00
  0.00000000E+00  0.00000000E+00  0.00000000E+00
  0.00000000E+00  0.00000000E+00  0.00000000E+00
  0.00000000E+00  0.00000000E+00  0.00000000E+00
  0.00000000E+00  0.00000000E+00  0.00000000E+00
  0.00000000E+00  0.00000000E+00  0.00000000E+00
  0.00000000E+00  0.00000000E+00  0.00000000E+00
  0.00000000E+00  0.00000000E+00  0.00000000E+00
  0.00000000E+00  0.00000000E+00  0.00000000E+00
  0.00000000E+00  0.00000000E+00  0.00000000E+00
  0.00000000E+00  0.00000000E+00  0.00000000E+00
  0.00000000E+00  0.00000000E+00  0.00000000E+00
  0.00000000E+00  0.00000000E+00  0.00000000E+00
  0.00000000E+00  0.00000000E+00  0.00000000E+00
  0.00000000E+00  0.00000000E+00  0.00000000E+00
