11.16                                   
   1.00000000000000     
    11.1599998474000000    0.0000000000000000    0.0000000000000000
     5.5799999237000000    9.6648433741000002    0.0000000000000000
     0.0000000000000000    0.0000000000000000   22.0000000000000000
   Pt   Fe   Co   Cu   Ni
    32    13    10    13    12
Direct
  0.7838841118507530  0.8813214851705438  0.3069647937780028
  0.0381010599195886  0.8796818631688575  0.3020862861724036
  0.2771069026669681  0.3742027547957599  0.3140542486366903
  0.8735923816510569  0.9645055762742650  0.4081293982637301
  0.1119015812352386  0.4698063365859329  0.4146514039102181
  0.1236712929854823  0.9575385713639257  0.4085392431990978
  0.8740548180615646  0.4560535400969635  0.4168922128239452
  0.3719036117332845  0.9591315730400627  0.4136552959038035
  0.8707380355659697  0.2117345120124452  0.4091581727348690
  0.1264907678479810  0.2134642767479422  0.4131160002284354
  0.6244969741553148  0.9582971618506773  0.4120436668306890
  0.8705514548175356  0.7154453271565950  0.4142671609058037
  0.3763765684026864  0.2047036031647910  0.4151256736634195
  0.3737010652643772  0.7113215260221615  0.4116834060481303
  0.6249108339714063  0.4618456993286355  0.4145218967551993
  0.1186444234486227  0.7127283463862021  0.4125794478884077
  0.6240680714881492  0.2088916565397458  0.4116684216834278
  0.5420797651033155  0.3790384968510679  0.3141088506729752
  0.5305356439967287  0.1264891021452153  0.3103836383234332
  0.5479359956583215  0.1255909330962863  0.0556211975751262
  0.1050472684439947  0.4365477744150339  0.1244170920667876
  0.0482922044036592  0.1333321306759789  0.3107347654477885
  0.0252908144414311  0.1249324652988469  0.0404736894366167
  0.1302648799826387  0.9552853862820770  0.1381767917940858
  0.3681722218738575  0.4610286784086168  0.4143101087680754
  0.4550904283575747  0.5565126870682988  0.2215455521883892
  0.6202633527215127  0.7107136296837173  0.4147571547948856
  0.9509406466604129  0.7708154113452911  0.2115423206000999
  0.7969842179434220  0.6240142840268178  0.3160759406489845
  0.2789184620382174  0.6283976419302642  0.3115899798530782
  0.1908232995319546  0.2723671775479794  0.2256696468347328
  0.6991999059527072  0.5561380520586355  0.2216657241593867
  0.0362534451007253  0.6343812163546616  0.3156669582253313
  0.7946764578772064  0.8597211692691008  0.0603210115629870
  0.0472277180116035  0.8608318649750323  0.0526243252669157
  0.0485999776725735  0.6467733799717915  0.0614832321789931
  0.6256235778859908  0.2386853248483196  0.1339005248463351
  0.3812980381212618  0.9505844376131574  0.1357545975674171
  0.0312218271674883  0.3844837676311290  0.3201058044924246
 -0.0087304370233567  0.3684184727318839  0.0440217023480515
  0.8635012237566303  0.2184212393439768  0.1330608519922825
  0.9518373191935456  0.5353226461155677  0.2223101241965621
  0.2991833048263812  0.1143098204560022  0.3190725699230795
  0.5418860776102234  0.6249689030598552  0.3202641787807027
  0.2807373866257052  0.1057206188296845  0.0521704006785328
  0.5389871303823747  0.6297256968799864  0.0482680523089156
  0.2984369226507663  0.4021714511041733  0.0563918975841851
  0.6229951541278449  0.9410554440566169  0.1384750233117753
  0.7030949415636302  0.7872524143034443  0.2202327500901401
  0.8492780921618275  0.6806581130549345  0.1312540967785316
  0.6167673531899488  0.4701632616600861  0.1300353231782891
  0.2977841958577505  0.8780910695327955  0.3176094448471725
  0.3010432863085652  0.8779877527460507  0.0477690246072552
  0.6085639264355777  0.7220527261510629  0.1306725412268848
  0.2344297440617027  0.0211869068818296  0.2284564754606382
  0.5345829760206194  0.3861113893825120  0.0411396901882696
  0.3654985731141857  0.2055446409839475  0.1382749235206300
  0.1632348597978168  0.7032863628078663  0.1453273861279526
  0.6943087379351145  0.0635364787555016  0.2192384899949203
  0.7879862326058460  0.1320483390863945  0.3115830438585633
  0.5405253007697990  0.8716960245204255  0.3162788398774772
  0.7846798910734302  0.1256469833406487  0.0427919047239174
  0.5372087181207079  0.8832323541728634  0.0436522970788456
  0.2017743130919358  0.5253249059650302  0.2194479454860312
  0.9396576829915657  0.3052585415070121  0.2247454620826028
  0.8650140293503296  0.9809937019243083  0.1369568719864571
  0.7110290602861803  0.3025694258928622  0.2258082484122853
  0.4534265575080763  0.2969096528493224  0.2215669009084897
  0.8590857215050880  0.4481114491333298  0.1318170387294003
  0.1134856041420531  0.1976785864310644  0.1337840014971144
  0.7711452799809599  0.6097180426138079  0.0462050243783149
  0.2956337008573093  0.6272833602671968  0.0522508754762038
  0.3842174902772593  0.7187580793505800  0.1329304882271177
  0.3925397067654144  0.4550135622532634  0.1351707120014768
  0.7863397090465382  0.3889482687955992  0.3186112360631038
  0.7750661983400240  0.3681197648461282  0.0452688502043899
  0.9449615169228855  0.0723766587515550  0.2217785010874365
  0.4633446796747294  0.7962897059493137  0.2274368369767349
  0.2354054404592562  0.7988367516933872  0.2276622677592813
  0.4587377486211665  0.0246024686153262  0.2248121213088733
 
  0.00000000E+00  0.00000000E+00  0.00000000E+00
  0.00000000E+00  0.00000000E+00  0.00000000E+00
  0.00000000E+00  0.00000000E+00  0.00000000E+00
  0.00000000E+00  0.00000000E+00  0.00000000E+00
  0.00000000E+00  0.00000000E+00  0.00000000E+00
  0.00000000E+00  0.00000000E+00  0.00000000E+00
  0.00000000E+00  0.00000000E+00  0.00000000E+00
  0.00000000E+00  0.00000000E+00  0.00000000E+00
  0.00000000E+00  0.00000000E+00  0.00000000E+00
  0.00000000E+00  0.00000000E+00  0.00000000E+00
  0.00000000E+00  0.00000000E+00  0.00000000E+00
  0.00000000E+00  0.00000000E+00  0.00000000E+00
  0.00000000E+00  0.00000000E+00  0.00000000E+00
  0.00000000E+00  0.00000000E+00  0.00000000E+00
  0.00000000E+00  0.00000000E+00  0.00000000E+00
  0.00000000E+00  0.00000000E+00  0.00000000E+00
  0.00000000E+00  0.00000000E+00  0.00000000E+00
  0.00000000E+00  0.00000000E+00  0.00000000E+00
  0.00000000E+00  0.00000000E+00  0.00000000E+00
  0.00000000E+00  0.00000000E+00  0.00000000E+00
  0.00000000E+00  0.00000000E+00  0.00000000E+00
  0.00000000E+00  0.00000000E+00  0.00000000E+00
  0.00000000E+00  0.00000000E+00  0.00000000E+00
  0.00000000E+00  0.00000000E+00  0.00000000E+00
  0.00000000E+00  0.00000000E+00  0.00000000E+00
  0.00000000E+00  0.00000000E+00  0.00000000E+00
  0.00000000E+00  0.00000000E+00  0.00000000E+00
  0.00000000E+00  0.00000000E+00  0.00000000E+00
  0.00000000E+00  0.00000000E+00  0.00000000E+00
  0.00000000E+00  0.00000000E+00  0.00000000E+00
  0.00000000E+00  0.00000000E+00  0.00000000E+00
  0.00000000E+00  0.00000000E+00  0.00000000E+00
  0.00000000E+00  0.00000000E+00  0.00000000E+00
  0.00000000E+00  0.00000000E+00  0.00000000E+00
  0.00000000E+00  0.00000000E+00  0.00000000E+00
  0.00000000E+00  0.00000000E+00  0.00000000E+00
  0.00000000E+00  0.00000000E+00  0.00000000E+00
  0.00000000E+00  0.00000000E+00  0.00000000E+00
  0.00000000E+00  0.00000000E+00  0.00000000E+00
  0.00000000E+00  0.00000000E+00  0.00000000E+00
  0.00000000E+00  0.00000000E+00  0.00000000E+00
  0.00000000E+00  0.00000000E+00  0.00000000E+00
  0.00000000E+00  0.00000000E+00  0.00000000E+00
  0.00000000E+00  0.00000000E+00  0.00000000E+00
  0.00000000E+00  0.00000000E+00  0.00000000E+00
  0.00000000E+00  0.00000000E+00  0.00000000E+00
  0.00000000E+00  0.00000000E+00  0.00000000E+00
  0.00000000E+00  0.00000000E+00  0.00000000E+00
  0.00000000E+00  0.00000000E+00  0.00000000E+00
  0.00000000E+00  0.00000000E+00  0.00000000E+00
  0.00000000E+00  0.00000000E+00  0.00000000E+00
  0.00000000E+00  0.00000000E+00  0.00000000E+00
  0.00000000E+00  0.00000000E+00  0.00000000E+00
  0.00000000E+00  0.00000000E+00  0.00000000E+00
  0.00000000E+00  0.00000000E+00  0.00000000E+00
  0.00000000E+00  0.00000000E+00  0.00000000E+00
  0.00000000E+00  0.00000000E+00  0.00000000E+00
  0.00000000E+00  0.00000000E+00  0.00000000E+00
  0.00000000E+00  0.00000000E+00  0.00000000E+00
  0.00000000E+00  0.00000000E+00  0.00000000E+00
  0.00000000E+00  0.00000000E+00  0.00000000E+00
  0.00000000E+00  0.00000000E+00  0.00000000E+00
  0.00000000E+00  0.00000000E+00  0.00000000E+00
  0.00000000E+00  0.00000000E+00  0.00000000E+00
  0.00000000E+00  0.00000000E+00  0.00000000E+00
  0.00000000E+00  0.00000000E+00  0.00000000E+00
  0.00000000E+00  0.00000000E+00  0.00000000E+00
  0.00000000E+00  0.00000000E+00  0.00000000E+00
  0.00000000E+00  0.00000000E+00  0.00000000E+00
  0.00000000E+00  0.00000000E+00  0.00000000E+00
  0.00000000E+00  0.00000000E+00  0.00000000E+00
  0.00000000E+00  0.00000000E+00  0.00000000E+00
  0.00000000E+00  0.00000000E+00  0.00000000E+00
  0.00000000E+00  0.00000000E+00  0.00000000E+00
  0.00000000E+00  0.00000000E+00  0.00000000E+00
  0.00000000E+00  0.00000000E+00  0.00000000E+00
  0.00000000E+00  0.00000000E+00  0.00000000E+00
  0.00000000E+00  0.00000000E+00  0.00000000E+00
  0.00000000E+00  0.00000000E+00  0.00000000E+00
  0.00000000E+00  0.00000000E+00  0.00000000E+00
