10.46                                   
   1.00000000000000     
    10.4600000381000005    0.0000000000000000    0.0000000000000000
     5.2300000191000002    9.0586257565999997    0.0000000000000000
     0.0000000000000000    0.0000000000000000   22.0000000000000000
   Pt   Fe   Co   Cu   Ni   H 
    32    13    10    13    12     1
Selective dynamics
Direct
  0.7885990522355542  0.8783074382781706  0.3189477099772731   F   F   F
  0.0412773845703001  0.8827655761111188  0.3169916661500025   F   F   F
  0.2795171604329383  0.3805333910045334  0.3205269508954558   F   F   F
  0.8729670520594155  0.9644447393838576  0.4320466650818204   F   F   F
  0.1237640723264306  0.4593692398615943  0.4294257141454523   F   F   F
  0.1253153382437375  0.9616708604451389  0.4216580360909106   F   F   F
  0.8742333758442982  0.4591733197686665  0.4289242504045490   F   F   F
  0.3746280333724314  0.9599320675174638  0.4223556417272718   F   F   F
  0.8744455208440129  0.2107742175582104  0.4221630617909113   F   F   F
  0.1250861092476399  0.2104937159050593  0.4248346194863615   F   F   F
  0.6229606535375041  0.9613899569981470  0.4243583151181838   F   F   F
  0.8725008444312579  0.7089991743527548  0.4314549103272753   F   F   F
  0.3746579849055038  0.2093437559685398  0.4270072647681786   F   F   F
  0.3757557260591469  0.7118267186059555  0.4253683929681813   F   F   F
  0.6255327675883606  0.4609821771870344  0.4233779414954526   F   F   F
  0.1272334241521094  0.7092524993450482  0.4327221626772726   F   F   F
  0.6247553163962607  0.2103592824233473  0.4235145920181793   F   F   F
  0.5482023033418528  0.3759074742787547  0.3175550516636392   F   F   F
  0.5352683654138843  0.1244409568834115  0.3153702509545440   F   F   F
  0.5463555366722659  0.1234644042320809  0.0380197407818201   F   F   F
  0.1212406355885420  0.4603947908281114  0.1271502081727292   F   F   F
  0.0423325433464896  0.1373396672771889  0.3141120709590908   F   F   F
  0.0428389108519767  0.1298145715251806  0.0317328682500033   F   F   F
  0.1301938677345404  0.9582784145570145  0.1312468517272762   F   F   F
  0.3751171113292173  0.4606811369991206  0.4290769752499983   F   F   F
  0.4540328858898093  0.5454509107410743  0.2187083565727264   F   F   F
  0.6227368065528935  0.7110464054779086  0.4248103686500002   F   F   F
  0.9563613465427778  0.7904679018981327  0.2212711332454518   F   F   F
  0.7948441638622086  0.6220234475405562  0.3198455900227302   F   F   F
  0.2912259371829435  0.6313945707860569  0.3197475555636373   F   F   F
  0.2029926352731195  0.2819160129492460  0.2253742575909072   F   F   F
  0.7072898954016935  0.5486203295548577  0.2205217376909090   F   F   F
  0.0405576833952281  0.6317848520599512  0.3282026123545450   F   F   F
  0.7977582256051079  0.8618987641708742  0.0403945815499966   F   F   F
  0.0556446370223256  0.8665462419264642  0.0360495583181830   F   F   F
  0.0467868659125017  0.6273110610690296  0.0349611334000031   F   F   F
  0.6268079290751558  0.2205144568031869  0.1279874704272714   F   F   F
  0.3824299677859813  0.9550771594351914  0.1293430731136382   F   F   F
  0.0360604957693695  0.3830665473923318  0.3258344692499975   F   F   F
  0.0322869523519600  0.3824189837598766  0.0357072738636361   F   F   F
  0.8718083387422340  0.2155041916681100  0.1275053200954517   F   F   F
  0.9551923697383700  0.5450551850541601  0.2237018674999973   F   F   F
  0.2960368208999711  0.1162393765558534  0.3219968504590938   F   F   F
  0.5406239792988643  0.6305345595206262  0.3222995700454518   F   F   F
  0.2950173595978711  0.1200886714861156  0.0375064116590877   F   F   F
  0.5475598048847914  0.6253949978198818  0.0421816458272701   F   F   F
  0.2945030729956244  0.3799106327129778  0.0369388269681821   F   F   F
  0.6254732335659057  0.9512088976103286  0.1314671777590917   F   F   F
  0.7062955093175702  0.7947981595502327  0.2196547961772737   F   F   F
  0.8663903657623848  0.7066093915334122  0.1280570884590944   F   F   F
  0.6260467991886856  0.4606603453796083  0.1263164780090875   F   F   F
  0.2973020880740620  0.8764100842024192  0.3180224216454519   F   F   F
  0.3052443792951109  0.8677867716383574  0.0391308983727257   F   F   F
  0.6272703420228964  0.7138141950492667  0.1276925297318172   F   F   F
  0.2234256011540126  0.0289588899738860  0.2271318947636374   F   F   F
  0.5432742054046216  0.3804519971132478  0.0330732290090907   F   F   F
  0.3785909415057347  0.2051562216648577  0.1314700547818148   F   F   F
  0.1350161306793751  0.7053169766114777  0.1306768704272727   F   F   F
  0.7050897259590414  0.0499878032791088  0.2204400288863653   F   F   F
  0.7928378686608113  0.1293085428931136  0.3180584371954538   F   F   F
  0.5380964708321017  0.8733935143236948  0.3169756345727279   F   F   F
  0.7961297016593818  0.1231870354603117  0.0328180932681832   F   F   F
  0.5460691330525478  0.8700680657833288  0.0347715803136381   F   F   F
  0.2070546213865541  0.5423754641392833  0.2243282066681829   F   F   F
  0.9518391764879297  0.2957259705588555  0.2207862691727271   F   F   F
  0.8717417800869072  0.9631728889829745  0.1282003082863667   F   F   F
  0.7139194298393150  0.2891101091125066  0.2228863708681814   F   F   F
  0.4574638451757664  0.2907874154068892  0.2206832389863607   F   F   F
  0.8752232243195124  0.4564829535856703  0.1268246701363651   F   F   F
  0.1275845306887575  0.2075320190957513  0.1280611435136336   F   F   F
  0.7923383526104573  0.6224713498503576  0.0390182938136334   F   F   F
  0.2981210247439137  0.6250642790022098  0.0405325909590886   F   F   F
  0.3856345194526227  0.7104295515035659  0.1282660679000003   F   F   F
  0.3824089299364672  0.4515722852905810  0.1254473441363615   F   F   F
  0.7931577221967103  0.3785737681017878  0.3207995200045488   F   F   F
  0.7908434017921309  0.3772889937317387  0.0379094772499968   F   F   F
  0.9558483290959217  0.0518719835464694  0.2213215703227291   F   F   F
  0.4578819920548582  0.7970605714602357  0.2241192740363616   F   F   F
  0.2121545357347188  0.7980517207627074  0.2244880538272724   F   F   F
  0.4623873984073086  0.0312412715575334  0.2218168949681782   F   F   F
  0.9588662984455141  0.7919248396560902  0.4784740083272744   T   T   T
 
  0.00000000E+00  0.00000000E+00  0.00000000E+00
  0.00000000E+00  0.00000000E+00  0.00000000E+00
  0.00000000E+00  0.00000000E+00  0.00000000E+00
  0.00000000E+00  0.00000000E+00  0.00000000E+00
  0.00000000E+00  0.00000000E+00  0.00000000E+00
  0.00000000E+00  0.00000000E+00  0.00000000E+00
  0.00000000E+00  0.00000000E+00  0.00000000E+00
  0.00000000E+00  0.00000000E+00  0.00000000E+00
  0.00000000E+00  0.00000000E+00  0.00000000E+00
  0.00000000E+00  0.00000000E+00  0.00000000E+00
  0.00000000E+00  0.00000000E+00  0.00000000E+00
  0.00000000E+00  0.00000000E+00  0.00000000E+00
  0.00000000E+00  0.00000000E+00  0.00000000E+00
  0.00000000E+00  0.00000000E+00  0.00000000E+00
  0.00000000E+00  0.00000000E+00  0.00000000E+00
  0.00000000E+00  0.00000000E+00  0.00000000E+00
  0.00000000E+00  0.00000000E+00  0.00000000E+00
  0.00000000E+00  0.00000000E+00  0.00000000E+00
  0.00000000E+00  0.00000000E+00  0.00000000E+00
  0.00000000E+00  0.00000000E+00  0.00000000E+00
  0.00000000E+00  0.00000000E+00  0.00000000E+00
  0.00000000E+00  0.00000000E+00  0.00000000E+00
  0.00000000E+00  0.00000000E+00  0.00000000E+00
  0.00000000E+00  0.00000000E+00  0.00000000E+00
  0.00000000E+00  0.00000000E+00  0.00000000E+00
  0.00000000E+00  0.00000000E+00  0.00000000E+00
  0.00000000E+00  0.00000000E+00  0.00000000E+00
  0.00000000E+00  0.00000000E+00  0.00000000E+00
  0.00000000E+00  0.00000000E+00  0.00000000E+00
  0.00000000E+00  0.00000000E+00  0.00000000E+00
  0.00000000E+00  0.00000000E+00  0.00000000E+00
  0.00000000E+00  0.00000000E+00  0.00000000E+00
  0.00000000E+00  0.00000000E+00  0.00000000E+00
  0.00000000E+00  0.00000000E+00  0.00000000E+00
  0.00000000E+00  0.00000000E+00  0.00000000E+00
  0.00000000E+00  0.00000000E+00  0.00000000E+00
  0.00000000E+00  0.00000000E+00  0.00000000E+00
  0.00000000E+00  0.00000000E+00  0.00000000E+00
  0.00000000E+00  0.00000000E+00  0.00000000E+00
  0.00000000E+00  0.00000000E+00  0.00000000E+00
  0.00000000E+00  0.00000000E+00  0.00000000E+00
  0.00000000E+00  0.00000000E+00  0.00000000E+00
  0.00000000E+00  0.00000000E+00  0.00000000E+00
  0.00000000E+00  0.00000000E+00  0.00000000E+00
  0.00000000E+00  0.00000000E+00  0.00000000E+00
  0.00000000E+00  0.00000000E+00  0.00000000E+00
  0.00000000E+00  0.00000000E+00  0.00000000E+00
  0.00000000E+00  0.00000000E+00  0.00000000E+00
  0.00000000E+00  0.00000000E+00  0.00000000E+00
  0.00000000E+00  0.00000000E+00  0.00000000E+00
  0.00000000E+00  0.00000000E+00  0.00000000E+00
  0.00000000E+00  0.00000000E+00  0.00000000E+00
  0.00000000E+00  0.00000000E+00  0.00000000E+00
  0.00000000E+00  0.00000000E+00  0.00000000E+00
  0.00000000E+00  0.00000000E+00  0.00000000E+00
  0.00000000E+00  0.00000000E+00  0.00000000E+00
  0.00000000E+00  0.00000000E+00  0.00000000E+00
  0.00000000E+00  0.00000000E+00  0.00000000E+00
  0.00000000E+00  0.00000000E+00  0.00000000E+00
  0.00000000E+00  0.00000000E+00  0.00000000E+00
  0.00000000E+00  0.00000000E+00  0.00000000E+00
  0.00000000E+00  0.00000000E+00  0.00000000E+00
  0.00000000E+00  0.00000000E+00  0.00000000E+00
  0.00000000E+00  0.00000000E+00  0.00000000E+00
  0.00000000E+00  0.00000000E+00  0.00000000E+00
  0.00000000E+00  0.00000000E+00  0.00000000E+00
  0.00000000E+00  0.00000000E+00  0.00000000E+00
  0.00000000E+00  0.00000000E+00  0.00000000E+00
  0.00000000E+00  0.00000000E+00  0.00000000E+00
  0.00000000E+00  0.00000000E+00  0.00000000E+00
  0.00000000E+00  0.00000000E+00  0.00000000E+00
  0.00000000E+00  0.00000000E+00  0.00000000E+00
  0.00000000E+00  0.00000000E+00  0.00000000E+00
  0.00000000E+00  0.00000000E+00  0.00000000E+00
  0.00000000E+00  0.00000000E+00  0.00000000E+00
  0.00000000E+00  0.00000000E+00  0.00000000E+00
  0.00000000E+00  0.00000000E+00  0.00000000E+00
  0.00000000E+00  0.00000000E+00  0.00000000E+00
  0.00000000E+00  0.00000000E+00  0.00000000E+00
  0.00000000E+00  0.00000000E+00  0.00000000E+00
  0.00000000E+00  0.00000000E+00  0.00000000E+00
