10.56                                   
   1.00000000000000     
    10.5600004195999997    0.0000000000000000    0.0000000000000000
     5.2800002097999998    9.1452286273999999    0.0000000000000000
     0.0000000000000000    0.0000000000000000   22.0000000000000000
   Pt   Fe   Co   Cu   Ni
    32    13    10    13    12
Direct
  0.7866955608705481  0.8792044975121769  0.3175808625878531
  0.0418308564857242  0.8830759499196503  0.3158791456068286
  0.2789186495124198  0.3812235485499258  0.3197460385463557
  0.8737165499546009  0.9621321433744683  0.4245676320617733
  0.1214275202434223  0.4624754585335111  0.4280095400050570
  0.1240179580814740  0.9615625048004546  0.4218278807601195
  0.8734751351958607  0.4600962361380212  0.4266690346097874
  0.3740907078761992  0.9601775316192089  0.4204861524722929
  0.8733090230011982  0.2114037980188925  0.4206039990110924
  0.1248815315730027  0.2110912147065349  0.4224017627726724
  0.6239527528920021  0.9610701240522630  0.4239794270420205
  0.8735573264723726  0.7110750306028919  0.4267115688478356
  0.3740744316750764  0.2094355836928088  0.4250190515286008
  0.3747736242329651  0.7123878828839523  0.4243718634276448
  0.6250233071194486  0.4615668075608923  0.4228434414042468
  0.1235535120068150  0.7112530855774821  0.4266143729385021
  0.6244071883554341  0.2107178540197907  0.4219107611887836
  0.5480331280459083  0.3760749439603615  0.3172115450582425
  0.5339200346521693  0.1248316745336098  0.3149471333925788
  0.5470002567309393  0.1235332521918835  0.0399417999792675
  0.1208089481838854  0.4601783015997043  0.1280394984827566
  0.0429215414748043  0.1371190363105939  0.3139924551932793
  0.0424414900737915  0.1302099981135498  0.0329802953695406
  0.1304832192219010  0.9579853651904457  0.1318324513652414
  0.3739378913464719  0.4616784405866241  0.4269096073707246
  0.4545409546924830  0.5457192756244993  0.2188518202987382
  0.6222270952484266  0.7115633672883632  0.4241398446441167
  0.9557150112780803  0.7901309279847126  0.2210448635643232
  0.7936456872174347  0.6228807728370143  0.3191411487033591
  0.2915147773321607  0.6314372181231107  0.3185821011048731
  0.2026302282532697  0.2805717472662081  0.2254649220963287
  0.7064516142076798  0.5493905794579703  0.2207507679886405
  0.0400757068763298  0.6313466213986061  0.3256202375890567
  0.7973180911857298  0.8616265572046800  0.0420760910781794
  0.0560985910251617  0.8657185943726375  0.0377408024139783
  0.0464128728296131  0.6281990126391506  0.0369911384080055
  0.6273755757357051  0.2222416784154078  0.1287505962321802
  0.3821141315825329  0.9550040284741641  0.1298830475232648
  0.0352966908963595  0.3839556480413364  0.3245221470782766
  0.0311405267505620  0.3816759960279086  0.0375046088689501
  0.8722404389414820  0.2153943248380514  0.1282949969568890
  0.9547121146412607  0.5451880757532663  0.2238905465224121
  0.2963477552667655  0.1159381207168479  0.3214123985237194
  0.5397901687438136  0.6304762615550672  0.3223206516584796
  0.2952537777573383  0.1193869715977769  0.0394092290051731
  0.5482511333460849  0.6253176515919350  0.0436557828226825
  0.2955313611129782  0.3794825008886491  0.0388921565765088
  0.6254873592740253  0.9499576153305611  0.1320861515426515
  0.7063418941376085  0.7943482474531578  0.2201040810409935
  0.8657230809026899  0.7055915708183988  0.1288086150341883
  0.6261967559753998  0.4601083651772413  0.1271035316941038
  0.2974994334049228  0.8757804131260585  0.3179488423833234
  0.3058183792095335  0.8681273535779823  0.0402965921580076
  0.6267113460396345  0.7146527937796421  0.1282718373779375
  0.2238985663360467  0.0282395707652512  0.2273103066600584
  0.5426930146743700  0.3810225683391835  0.0346170130491004
  0.3782499856636647  0.2053095451198317  0.1325912588926670
  0.1361840205673701  0.7049738332520903  0.1317829863304709
  0.7048694108175653  0.0502839582141945  0.2203633218762491
  0.7924544449592759  0.1300869471321136  0.3168798477854722
  0.5378510221786854  0.8733305506119464  0.3167983874264166
  0.7965506180300537  0.1231154660588061  0.0345346489215075
  0.5461463374709652  0.8704875427066199  0.0358963983795491
  0.2072223479365505  0.5428206522703718  0.2241705479812737
  0.9515132437925331  0.2967218890121117  0.2212922910368391
  0.8718576990596247  0.9638570180222672  0.1289765751150540
  0.7142109858861687  0.2900443576212552  0.2233456813423587
  0.4576441343994020  0.2914717494979442  0.2208305283948562
  0.8758100826512205  0.4565068959116800  0.1279466825133611
  0.1276916528003085  0.2069238958546293  0.1287633622288880
  0.7922909547094079  0.6217683887307786  0.0402482254018324
  0.2978485906329951  0.6254074402968399  0.0420896375614674
  0.3856750788570693  0.7114654717231872  0.1289187271216790
  0.3820764845374143  0.4516090485206874  0.1264952625703728
  0.7925069304056578  0.3792461951626649  0.3203221183388081
  0.7909247997102113  0.3772595911578236  0.0394562840913366
  0.9555996101377175  0.0529344377675827  0.2214324969807464
  0.4575573979138596  0.7971559299409208  0.2244088666744091
  0.2131500369791652  0.7976872161537969  0.2245790410596982
  0.4623985897492346  0.0302163017453267  0.2220026953531473
 
  0.00000000E+00  0.00000000E+00  0.00000000E+00
  0.00000000E+00  0.00000000E+00  0.00000000E+00
  0.00000000E+00  0.00000000E+00  0.00000000E+00
  0.00000000E+00  0.00000000E+00  0.00000000E+00
  0.00000000E+00  0.00000000E+00  0.00000000E+00
  0.00000000E+00  0.00000000E+00  0.00000000E+00
  0.00000000E+00  0.00000000E+00  0.00000000E+00
  0.00000000E+00  0.00000000E+00  0.00000000E+00
  0.00000000E+00  0.00000000E+00  0.00000000E+00
  0.00000000E+00  0.00000000E+00  0.00000000E+00
  0.00000000E+00  0.00000000E+00  0.00000000E+00
  0.00000000E+00  0.00000000E+00  0.00000000E+00
  0.00000000E+00  0.00000000E+00  0.00000000E+00
  0.00000000E+00  0.00000000E+00  0.00000000E+00
  0.00000000E+00  0.00000000E+00  0.00000000E+00
  0.00000000E+00  0.00000000E+00  0.00000000E+00
  0.00000000E+00  0.00000000E+00  0.00000000E+00
  0.00000000E+00  0.00000000E+00  0.00000000E+00
  0.00000000E+00  0.00000000E+00  0.00000000E+00
  0.00000000E+00  0.00000000E+00  0.00000000E+00
  0.00000000E+00  0.00000000E+00  0.00000000E+00
  0.00000000E+00  0.00000000E+00  0.00000000E+00
  0.00000000E+00  0.00000000E+00  0.00000000E+00
  0.00000000E+00  0.00000000E+00  0.00000000E+00
  0.00000000E+00  0.00000000E+00  0.00000000E+00
  0.00000000E+00  0.00000000E+00  0.00000000E+00
  0.00000000E+00  0.00000000E+00  0.00000000E+00
  0.00000000E+00  0.00000000E+00  0.00000000E+00
  0.00000000E+00  0.00000000E+00  0.00000000E+00
  0.00000000E+00  0.00000000E+00  0.00000000E+00
  0.00000000E+00  0.00000000E+00  0.00000000E+00
  0.00000000E+00  0.00000000E+00  0.00000000E+00
  0.00000000E+00  0.00000000E+00  0.00000000E+00
  0.00000000E+00  0.00000000E+00  0.00000000E+00
  0.00000000E+00  0.00000000E+00  0.00000000E+00
  0.00000000E+00  0.00000000E+00  0.00000000E+00
  0.00000000E+00  0.00000000E+00  0.00000000E+00
  0.00000000E+00  0.00000000E+00  0.00000000E+00
  0.00000000E+00  0.00000000E+00  0.00000000E+00
  0.00000000E+00  0.00000000E+00  0.00000000E+00
  0.00000000E+00  0.00000000E+00  0.00000000E+00
  0.00000000E+00  0.00000000E+00  0.00000000E+00
  0.00000000E+00  0.00000000E+00  0.00000000E+00
  0.00000000E+00  0.00000000E+00  0.00000000E+00
  0.00000000E+00  0.00000000E+00  0.00000000E+00
  0.00000000E+00  0.00000000E+00  0.00000000E+00
  0.00000000E+00  0.00000000E+00  0.00000000E+00
  0.00000000E+00  0.00000000E+00  0.00000000E+00
  0.00000000E+00  0.00000000E+00  0.00000000E+00
  0.00000000E+00  0.00000000E+00  0.00000000E+00
  0.00000000E+00  0.00000000E+00  0.00000000E+00
  0.00000000E+00  0.00000000E+00  0.00000000E+00
  0.00000000E+00  0.00000000E+00  0.00000000E+00
  0.00000000E+00  0.00000000E+00  0.00000000E+00
  0.00000000E+00  0.00000000E+00  0.00000000E+00
  0.00000000E+00  0.00000000E+00  0.00000000E+00
  0.00000000E+00  0.00000000E+00  0.00000000E+00
  0.00000000E+00  0.00000000E+00  0.00000000E+00
  0.00000000E+00  0.00000000E+00  0.00000000E+00
  0.00000000E+00  0.00000000E+00  0.00000000E+00
  0.00000000E+00  0.00000000E+00  0.00000000E+00
  0.00000000E+00  0.00000000E+00  0.00000000E+00
  0.00000000E+00  0.00000000E+00  0.00000000E+00
  0.00000000E+00  0.00000000E+00  0.00000000E+00
  0.00000000E+00  0.00000000E+00  0.00000000E+00
  0.00000000E+00  0.00000000E+00  0.00000000E+00
  0.00000000E+00  0.00000000E+00  0.00000000E+00
  0.00000000E+00  0.00000000E+00  0.00000000E+00
  0.00000000E+00  0.00000000E+00  0.00000000E+00
  0.00000000E+00  0.00000000E+00  0.00000000E+00
  0.00000000E+00  0.00000000E+00  0.00000000E+00
  0.00000000E+00  0.00000000E+00  0.00000000E+00
  0.00000000E+00  0.00000000E+00  0.00000000E+00
  0.00000000E+00  0.00000000E+00  0.00000000E+00
  0.00000000E+00  0.00000000E+00  0.00000000E+00
  0.00000000E+00  0.00000000E+00  0.00000000E+00
  0.00000000E+00  0.00000000E+00  0.00000000E+00
  0.00000000E+00  0.00000000E+00  0.00000000E+00
  0.00000000E+00  0.00000000E+00  0.00000000E+00
  0.00000000E+00  0.00000000E+00  0.00000000E+00
