10.86                                   
   1.00000000000000     
    10.8599996566999994    0.0000000000000000    0.0000000000000000
     5.4299998282999997    9.4050355878000005    0.0000000000000000
     0.0000000000000000    0.0000000000000000   22.0000000000000000
   Pt   Fe   Co   Cu   Ni   H 
    32    13    10    13    12     1
Selective dynamics
Direct
  0.7867274053007094  0.8792560893896990  0.3155459177454532   F   F   F
  0.0419801858863096  0.8822105801771727  0.3126357354045481   F   F   F
  0.2794078425454387  0.3806803589392374  0.3168887089363608   F   F   F
  0.8739062436298681  0.9654838359972686  0.4205336233000025   F   F   F
  0.1209880267735386  0.4617180771365668  0.4218592642727259   F   F   F
  0.1260457862199615  0.9620712414567834  0.4162695162727275   F   F   F
  0.8743896126923758  0.4588683611466777  0.4209718692772739   F   F   F
  0.3737182463656623  0.9595795586788469  0.4167923563136355   F   F   F
  0.8731546238544041  0.2106302971750225  0.4152591968227242   F   F   F
  0.1258336093806705  0.2116043321283740  0.4177869914909067   F   F   F
  0.6201597925022355  0.9616643479087230  0.4177554071863625   F   F   F
  0.8724389479255947  0.7087944569127700  0.4245210610636363   F   F   F
  0.3743984777350278  0.2089648044765937  0.4197858910954579   F   F   F
  0.3755476473281618  0.7127697700044635  0.4190190956409126   F   F   F
  0.6256536827739154  0.4617014392516268  0.4179193984681788   F   F   F
  0.1269046163095595  0.7088447453136624  0.4197878163136366   F   F   F
  0.6237164604293710  0.2117324124518092  0.4172722505772697   F   F   F
  0.5477156404457446  0.3760065159761083  0.3150474658590880   F   F   F
  0.5341411298838779  0.1252813726966053  0.3128172396636373   F   F   F
  0.5483883292934877  0.1233734725262678  0.0461674633454550   F   F   F
  0.1189763218456719  0.4584087287125840  0.1298649037999979   F   F   F
  0.0447811309305521  0.1358084810287039  0.3124229222727308   F   F   F
  0.0406657298294206  0.1314986331475723  0.0367327973454579   F   F   F
  0.1309549378495518  0.9578912708619924  0.1339264883772699   F   F   F
  0.3736186598482618  0.4608630045932571  0.4208896273909062   F   F   F
  0.4556522333904454  0.5480667654342994  0.2186221383272695   F   F   F
  0.6206919969475564  0.7108993400910677  0.4191997151909064   F   F   F
  0.9546323180157117  0.7862445906948139  0.2204777234045423   F   F   F
  0.7961923865313807  0.6236637899604247  0.3179647980681821   F   F   F
  0.2910929288254565  0.6314005603129331  0.3161877212500031   F   F   F
  0.2002708624331007  0.2770478458561030  0.2260251504045456   F   F   F
  0.7045829241556802  0.5516321129959252  0.2208851499954534   F   F   F
  0.0407299119786018  0.6321609631559895  0.3227276130409109   F   F   F
  0.7955110030430319  0.8609512276384805  0.0480385122272722   F   F   F
  0.0573949397823768  0.8629365884407534  0.0426982104681812   F   F   F
  0.0458753864337567  0.6317424305982726  0.0425419417454549   F   F   F
  0.6283988685906934  0.2264175371289738  0.1318427956090886   F   F   F
  0.3823587953945804  0.9533284287228625  0.1319694655727304   F   F   F
  0.0354492657585368  0.3839492341724053  0.3221699585363638   F   F   F
  0.0268079723616808  0.3797381930306329  0.0416316377136354   F   F   F
  0.8723791053676138  0.2158092365469457  0.1307545436727295   F   F   F
  0.9547024218507971  0.5436382700170128  0.2244670324363653   F   F   F
  0.2982909633395963  0.1150621199247510  0.3197892036499965   F   F   F
  0.5414277159783651  0.6275500066109387  0.3203339907727241   F   F   F
  0.2945049925961882  0.1170356248441848  0.0441488403727277   F   F   F
  0.5519685041016658  0.6240663073846946  0.0467109319272723   F   F   F
  0.2960777314503247  0.3827352514932940  0.0441011896590879   F   F   F
  0.6249515703976343  0.9461887287639286  0.1346385474090894   F   F   F
  0.7073007629469075  0.7919560005877955  0.2206980387772717   F   F   F
  0.8641642368870777  0.7014903972780502  0.1310198486954519   F   F   F
  0.6284097325721945  0.4565427356882950  0.1288810116500017   F   F   F
  0.2968093084056278  0.8746115514512525  0.3173485992727265   F   F   F
  0.3034084821940297  0.8750332447838289  0.0436180695045465   F   F   F
  0.6263955126564014  0.7168699604014037  0.1294389879545434   F   F   F
  0.2282460863355027  0.0251927252999806  0.2279743672272758   F   F   F
  0.5411956632024371  0.3786938250526219  0.0386404366090929   F   F   F
  0.3758860748220698  0.2062408198131820  0.1355179188181808   F   F   F
  0.1391045929531671  0.7049881574824539  0.1351065841363663   F   F   F
  0.7043988531711349  0.0514063915852887  0.2204906319818178   F   F   F
  0.7925906382330155  0.1288217845312190  0.3151967529681841   F   F   F
  0.5392694332954946  0.8720623644889969  0.3161042186318213   F   F   F
  0.7963472328275429  0.1231574992127094  0.0392939661590930   F   F   F
  0.5440945193985200  0.8759385405927063  0.0392459096681819   F   F   F
  0.2079024299005852  0.5431036366120594  0.2237859261272703   F   F   F
  0.9489325326236937  0.3007508570375990  0.2224478204318174   F   F   F
  0.8725112496294898  0.9655798376329443  0.1316447751227301   F   F   F
  0.7171476949159796  0.2914481447423398  0.2245606244909055   F   F   F
  0.4567330680043540  0.2945848388488770  0.2213046886454535   F   F   F
  0.8750294207410079  0.4572868458869976  0.1300096086727294   F   F   F
  0.1269801392207555  0.2054284542959337  0.1306704091090936   F   F   F
  0.7957063935882616  0.6202328764993581  0.0430280211045471   F   F   F
  0.2938692617776510  0.6266274624994352  0.0463221184909060   F   F   F
  0.3850310216699739  0.7148852913243218  0.1298736747000007   F   F   F
  0.3816718202388216  0.4522385150798698  0.1290563122090944   F   F   F
  0.7925937198638877  0.3822774029120950  0.3194696842318194   F   F   F
  0.7947937720711735  0.3739039784455045  0.0430364376636376   F   F   F
  0.9546170343474998  0.0559472075345013  0.2217931839272751   F   F   F
  0.4595337133946984  0.7957272121764092  0.2251697936636390   F   F   F
  0.2181471024034209  0.7973202649150295  0.2249219835909102   F   F   F
  0.4610829538139924  0.0274880027604922  0.2232129655818156   F   F   F
  0.8735661916584687  0.8401897508554157  0.4697228863636334   T   T   T
 
  0.00000000E+00  0.00000000E+00  0.00000000E+00
  0.00000000E+00  0.00000000E+00  0.00000000E+00
  0.00000000E+00  0.00000000E+00  0.00000000E+00
  0.00000000E+00  0.00000000E+00  0.00000000E+00
  0.00000000E+00  0.00000000E+00  0.00000000E+00
  0.00000000E+00  0.00000000E+00  0.00000000E+00
  0.00000000E+00  0.00000000E+00  0.00000000E+00
  0.00000000E+00  0.00000000E+00  0.00000000E+00
  0.00000000E+00  0.00000000E+00  0.00000000E+00
  0.00000000E+00  0.00000000E+00  0.00000000E+00
  0.00000000E+00  0.00000000E+00  0.00000000E+00
  0.00000000E+00  0.00000000E+00  0.00000000E+00
  0.00000000E+00  0.00000000E+00  0.00000000E+00
  0.00000000E+00  0.00000000E+00  0.00000000E+00
  0.00000000E+00  0.00000000E+00  0.00000000E+00
  0.00000000E+00  0.00000000E+00  0.00000000E+00
  0.00000000E+00  0.00000000E+00  0.00000000E+00
  0.00000000E+00  0.00000000E+00  0.00000000E+00
  0.00000000E+00  0.00000000E+00  0.00000000E+00
  0.00000000E+00  0.00000000E+00  0.00000000E+00
  0.00000000E+00  0.00000000E+00  0.00000000E+00
  0.00000000E+00  0.00000000E+00  0.00000000E+00
  0.00000000E+00  0.00000000E+00  0.00000000E+00
  0.00000000E+00  0.00000000E+00  0.00000000E+00
  0.00000000E+00  0.00000000E+00  0.00000000E+00
  0.00000000E+00  0.00000000E+00  0.00000000E+00
  0.00000000E+00  0.00000000E+00  0.00000000E+00
  0.00000000E+00  0.00000000E+00  0.00000000E+00
  0.00000000E+00  0.00000000E+00  0.00000000E+00
  0.00000000E+00  0.00000000E+00  0.00000000E+00
  0.00000000E+00  0.00000000E+00  0.00000000E+00
  0.00000000E+00  0.00000000E+00  0.00000000E+00
  0.00000000E+00  0.00000000E+00  0.00000000E+00
  0.00000000E+00  0.00000000E+00  0.00000000E+00
  0.00000000E+00  0.00000000E+00  0.00000000E+00
  0.00000000E+00  0.00000000E+00  0.00000000E+00
  0.00000000E+00  0.00000000E+00  0.00000000E+00
  0.00000000E+00  0.00000000E+00  0.00000000E+00
  0.00000000E+00  0.00000000E+00  0.00000000E+00
  0.00000000E+00  0.00000000E+00  0.00000000E+00
  0.00000000E+00  0.00000000E+00  0.00000000E+00
  0.00000000E+00  0.00000000E+00  0.00000000E+00
  0.00000000E+00  0.00000000E+00  0.00000000E+00
  0.00000000E+00  0.00000000E+00  0.00000000E+00
  0.00000000E+00  0.00000000E+00  0.00000000E+00
  0.00000000E+00  0.00000000E+00  0.00000000E+00
  0.00000000E+00  0.00000000E+00  0.00000000E+00
  0.00000000E+00  0.00000000E+00  0.00000000E+00
  0.00000000E+00  0.00000000E+00  0.00000000E+00
  0.00000000E+00  0.00000000E+00  0.00000000E+00
  0.00000000E+00  0.00000000E+00  0.00000000E+00
  0.00000000E+00  0.00000000E+00  0.00000000E+00
  0.00000000E+00  0.00000000E+00  0.00000000E+00
  0.00000000E+00  0.00000000E+00  0.00000000E+00
  0.00000000E+00  0.00000000E+00  0.00000000E+00
  0.00000000E+00  0.00000000E+00  0.00000000E+00
  0.00000000E+00  0.00000000E+00  0.00000000E+00
  0.00000000E+00  0.00000000E+00  0.00000000E+00
  0.00000000E+00  0.00000000E+00  0.00000000E+00
  0.00000000E+00  0.00000000E+00  0.00000000E+00
  0.00000000E+00  0.00000000E+00  0.00000000E+00
  0.00000000E+00  0.00000000E+00  0.00000000E+00
  0.00000000E+00  0.00000000E+00  0.00000000E+00
  0.00000000E+00  0.00000000E+00  0.00000000E+00
  0.00000000E+00  0.00000000E+00  0.00000000E+00
  0.00000000E+00  0.00000000E+00  0.00000000E+00
  0.00000000E+00  0.00000000E+00  0.00000000E+00
  0.00000000E+00  0.00000000E+00  0.00000000E+00
  0.00000000E+00  0.00000000E+00  0.00000000E+00
  0.00000000E+00  0.00000000E+00  0.00000000E+00
  0.00000000E+00  0.00000000E+00  0.00000000E+00
  0.00000000E+00  0.00000000E+00  0.00000000E+00
  0.00000000E+00  0.00000000E+00  0.00000000E+00
  0.00000000E+00  0.00000000E+00  0.00000000E+00
  0.00000000E+00  0.00000000E+00  0.00000000E+00
  0.00000000E+00  0.00000000E+00  0.00000000E+00
  0.00000000E+00  0.00000000E+00  0.00000000E+00
  0.00000000E+00  0.00000000E+00  0.00000000E+00
  0.00000000E+00  0.00000000E+00  0.00000000E+00
  0.00000000E+00  0.00000000E+00  0.00000000E+00
  0.00000000E+00  0.00000000E+00  0.00000000E+00
