Pt   H                                  
   1.00000000000000     
    11.2227001190000006    0.0000000000000000    0.0000000000000000
     5.6113500595000003    9.7191434021000003    0.0000000000000000
     0.0000000000000000    0.0000000000000000   22.0000000000000000
   Pt   H 
    80     1
Direct
  0.7850487949105590  0.8691550706215959  0.3267568982786666
  0.0350740935135258  0.8691599724390308  0.3267227314815237
  0.0353293023838646  0.6190436807349974  0.3265999008172724
  0.7859874772796904  0.8683467627727085  0.0229797441884206
  0.0361411200713817  0.8683312298822226  0.0228920617044351
  0.0360806836647559  0.6184047064099590  0.0228942126542416
  0.6191884092108615  0.2019318740506225  0.1260196238799710
  0.3693013494745357  0.9515992619816791  0.1259564729404352
  0.0349271724657858  0.3690040048662753  0.3265829974558227
  0.0359365352325149  0.3686979437990517  0.0229992444967963
  0.8690411510287543  0.2020309014697836  0.1259049021294325
  0.9519737630984041  0.5355322974218899  0.2263532100375238
  0.2849018616114362  0.1190088655603508  0.3266058239676800
  0.5348874392226152  0.6189388787734184  0.3278744473447739
  0.2852386696362186  0.3693212444285044  0.3267004340398673
  0.2863788058024726  0.1182446264086559  0.0230027153073851
  0.5361353661122827  0.6183569802155099  0.0231244577800879
  0.2861466463220155  0.3684790367665493  0.0229250261820728
  0.6189758327047603  0.9520639895478076  0.1260219924274073
  0.7019597497429652  0.7854549448747234  0.2263613553342760
  0.8691121543094014  0.7019714487632370  0.1260035479021208
  0.6188444406358756  0.4520041539890057  0.1261983504021079
  0.2855563530411970  0.8682818628171040  0.3272359005271852
  0.2861301185526814  0.8682782353252395  0.0229322558157315
  0.6189102031564929  0.7019302292209337  0.1260899164309500
  0.2016975971345116  0.0361305996888801  0.2260482299387138
  0.8682221668122989  0.9527845884852019  0.4298392087209771
  0.1174519758473861  0.4527117208599672  0.4297825390474755
  0.1178960162790031  0.9528487938434547  0.4296639074824368
  0.8695947744761077  0.4525156888918807  0.4296983203166149
  0.3680032752268007  0.9541009255725924  0.4297049029937632
  0.8682003280686039  0.2025428714682531  0.4296849675323324
  0.1179822336999529  0.2026120795115691  0.4295678038491288
  0.6181583222719399  0.9531800878590707  0.4298614043997223
  0.8686156455366926  0.7027419628559231  0.4298681781916261
  0.3681301941954549  0.2020911747170290  0.4297931394360148
  0.3658419975601816  0.7064434763756274  0.4324499198170929
  0.6218243066333718  0.4504761806345328  0.4324699005226953
  0.1162922606442684  0.7032507763500376  0.4297460096393048
  0.6185592252591448  0.2008925630534835  0.4297713311291788
  0.5353301218154843  0.3695380307282141  0.3275032648757186
  0.5361139599830287  0.3683506112029227  0.0230381829001213
  0.5350364896033889  0.1193204262623831  0.3266034475530426
  0.5361832613901333  0.1182905315186560  0.0229033431204808
  0.8686431793627035  0.4522464747358557  0.1259803274650336
  0.1192360785235685  0.4522053018500387  0.1259633027617550
  0.0350080155217024  0.1190307561859113  0.3266439301009349
  0.0359236107984902  0.1181671606552891  0.0227286623748137
  0.1190393643567782  0.9519826449578057  0.1259008229859556
  0.3653927164166491  0.4500129982295168  0.4299009875278855
  0.4520790850254344  0.5357012099000230  0.2269068356964355
  0.6204698379827409  0.7050951936750949  0.4295377178767660
  0.3692206109297261  0.2022125369504480  0.1259501356501542
  0.1190792074993667  0.2021625077981818  0.1253650002316061
  0.9520411758004409  0.7856338398663761  0.2263963462918679
  0.7850932827877164  0.6191363085324305  0.3267347122378025
  0.2854616523808732  0.6193658580651059  0.3274988051952122
  0.7861175399778438  0.6185062462406180  0.0229400140581217
  0.2860916432573857  0.6183809906594865  0.0230472356653903
  0.3690522784029573  0.7018405671774689  0.1261595679657441
  0.3692352592664311  0.4521560048095069  0.1261084876709425
  0.2021092399240005  0.2856195468326259  0.2263294253951952
  0.7841474051632635  0.3696928501968624  0.3272523752607713
  0.7858848734708009  0.3684909514461805  0.0229460161686976
  0.9520434267256360  0.0356410242817639  0.2263020300912700
  0.4517746134929272  0.7855678499805459  0.2265760129501991
  0.7020017223304881  0.5353579789701787  0.2265936187377284
  0.2022996831913026  0.7856248333934869  0.2265712937230420
  0.4518983418201259  0.0355928761398840  0.2263531009998777
  0.1189019235416403  0.7022235092834017  0.1260121952004143
  0.7020779282676330  0.0356026143473031  0.2264006816348470
  0.7850716117668399  0.1191577538699818  0.3267554970736777
  0.5350216061914449  0.8691961360067730  0.3267080256456685
  0.7860930953867049  0.1183857905007668  0.0229291626140896
  0.5362528787632278  0.8683676544220171  0.0229119302714205
  0.2022519661522864  0.5357413010913245  0.2263676048870190
  0.9525443622133922  0.2852526744730841  0.2260834274893727
  0.8690216795773770  0.9519508146082631  0.1259397845216962
  0.7021501803843542  0.2857640560551642  0.2265846221371120
  0.4521836478962338  0.2857785903435267  0.2263733183324142
  0.4788805909286419  0.5636296305490978  0.4771608061164088
 
  0.00000000E+00  0.00000000E+00  0.00000000E+00
  0.00000000E+00  0.00000000E+00  0.00000000E+00
  0.00000000E+00  0.00000000E+00  0.00000000E+00
  0.00000000E+00  0.00000000E+00  0.00000000E+00
  0.00000000E+00  0.00000000E+00  0.00000000E+00
  0.00000000E+00  0.00000000E+00  0.00000000E+00
  0.00000000E+00  0.00000000E+00  0.00000000E+00
  0.00000000E+00  0.00000000E+00  0.00000000E+00
  0.00000000E+00  0.00000000E+00  0.00000000E+00
  0.00000000E+00  0.00000000E+00  0.00000000E+00
  0.00000000E+00  0.00000000E+00  0.00000000E+00
  0.00000000E+00  0.00000000E+00  0.00000000E+00
  0.00000000E+00  0.00000000E+00  0.00000000E+00
  0.00000000E+00  0.00000000E+00  0.00000000E+00
  0.00000000E+00  0.00000000E+00  0.00000000E+00
  0.00000000E+00  0.00000000E+00  0.00000000E+00
  0.00000000E+00  0.00000000E+00  0.00000000E+00
  0.00000000E+00  0.00000000E+00  0.00000000E+00
  0.00000000E+00  0.00000000E+00  0.00000000E+00
  0.00000000E+00  0.00000000E+00  0.00000000E+00
  0.00000000E+00  0.00000000E+00  0.00000000E+00
  0.00000000E+00  0.00000000E+00  0.00000000E+00
  0.00000000E+00  0.00000000E+00  0.00000000E+00
  0.00000000E+00  0.00000000E+00  0.00000000E+00
  0.00000000E+00  0.00000000E+00  0.00000000E+00
  0.00000000E+00  0.00000000E+00  0.00000000E+00
  0.00000000E+00  0.00000000E+00  0.00000000E+00
  0.00000000E+00  0.00000000E+00  0.00000000E+00
  0.00000000E+00  0.00000000E+00  0.00000000E+00
  0.00000000E+00  0.00000000E+00  0.00000000E+00
  0.00000000E+00  0.00000000E+00  0.00000000E+00
  0.00000000E+00  0.00000000E+00  0.00000000E+00
  0.00000000E+00  0.00000000E+00  0.00000000E+00
  0.00000000E+00  0.00000000E+00  0.00000000E+00
  0.00000000E+00  0.00000000E+00  0.00000000E+00
  0.00000000E+00  0.00000000E+00  0.00000000E+00
  0.00000000E+00  0.00000000E+00  0.00000000E+00
  0.00000000E+00  0.00000000E+00  0.00000000E+00
  0.00000000E+00  0.00000000E+00  0.00000000E+00
  0.00000000E+00  0.00000000E+00  0.00000000E+00
  0.00000000E+00  0.00000000E+00  0.00000000E+00
  0.00000000E+00  0.00000000E+00  0.00000000E+00
  0.00000000E+00  0.00000000E+00  0.00000000E+00
  0.00000000E+00  0.00000000E+00  0.00000000E+00
  0.00000000E+00  0.00000000E+00  0.00000000E+00
  0.00000000E+00  0.00000000E+00  0.00000000E+00
  0.00000000E+00  0.00000000E+00  0.00000000E+00
  0.00000000E+00  0.00000000E+00  0.00000000E+00
  0.00000000E+00  0.00000000E+00  0.00000000E+00
  0.00000000E+00  0.00000000E+00  0.00000000E+00
  0.00000000E+00  0.00000000E+00  0.00000000E+00
  0.00000000E+00  0.00000000E+00  0.00000000E+00
  0.00000000E+00  0.00000000E+00  0.00000000E+00
  0.00000000E+00  0.00000000E+00  0.00000000E+00
  0.00000000E+00  0.00000000E+00  0.00000000E+00
  0.00000000E+00  0.00000000E+00  0.00000000E+00
  0.00000000E+00  0.00000000E+00  0.00000000E+00
  0.00000000E+00  0.00000000E+00  0.00000000E+00
  0.00000000E+00  0.00000000E+00  0.00000000E+00
  0.00000000E+00  0.00000000E+00  0.00000000E+00
  0.00000000E+00  0.00000000E+00  0.00000000E+00
  0.00000000E+00  0.00000000E+00  0.00000000E+00
  0.00000000E+00  0.00000000E+00  0.00000000E+00
  0.00000000E+00  0.00000000E+00  0.00000000E+00
  0.00000000E+00  0.00000000E+00  0.00000000E+00
  0.00000000E+00  0.00000000E+00  0.00000000E+00
  0.00000000E+00  0.00000000E+00  0.00000000E+00
  0.00000000E+00  0.00000000E+00  0.00000000E+00
  0.00000000E+00  0.00000000E+00  0.00000000E+00
  0.00000000E+00  0.00000000E+00  0.00000000E+00
  0.00000000E+00  0.00000000E+00  0.00000000E+00
  0.00000000E+00  0.00000000E+00  0.00000000E+00
  0.00000000E+00  0.00000000E+00  0.00000000E+00
  0.00000000E+00  0.00000000E+00  0.00000000E+00
  0.00000000E+00  0.00000000E+00  0.00000000E+00
  0.00000000E+00  0.00000000E+00  0.00000000E+00
  0.00000000E+00  0.00000000E+00  0.00000000E+00
  0.00000000E+00  0.00000000E+00  0.00000000E+00
  0.00000000E+00  0.00000000E+00  0.00000000E+00
  0.00000000E+00  0.00000000E+00  0.00000000E+00
  0.00000000E+00  0.00000000E+00  0.00000000E+00
