11.06-high                              
   1.00000000000000     
    11.0600004195999997    0.0000000000000000    0.0000000000000000
     5.5300002097999998    9.5782413293000008    0.0000000000000000
     0.0000000000000000    0.0000000000000000   22.0000000000000000
   Pt   Fe   Co   Cu   Ni
    42    10     9    10     9
Direct
  0.7824308103950819  0.8777002358902615  0.3175757975758090
  0.0443845165389436  0.8776112368801418  0.3183563723703302
  0.0416310278027730  0.6240954432287084  0.3176533883843515
  0.0332914914958971  0.3785330182113094  0.3199256305838493
  0.2964632341096172  0.1143334952458546  0.3197658946713970
  0.2930065463314642  0.3768721244337431  0.3189625796489183
  0.8726461684563303  0.7042119250485224  0.1253011295416682
  0.8741804749892913  0.9604261247494843  0.4203520970686545
  0.1222630780060336  0.4624201036941811  0.4232669599494258
  0.1281288475910985  0.9594136864945690  0.4207544504256051
  0.8742015872058524  0.4586810816501973  0.4231399524607194
  0.3772026640902555  0.9555669041484152  0.4216836853838437
  0.8729445725208711  0.2122040247943665  0.4188007177872498
  0.1245034543104940  0.2098646685706392  0.4229704624933077
  0.6248241130965854  0.9572283052358734  0.4216644530236200
  0.8730311287634848  0.7118007809704101  0.4234999404134921
  0.3772998664885461  0.2063648086849615  0.4225656660557512
  0.3779470752390139  0.7125179997037498  0.4213375750023728
  0.6270469673679067  0.4639569257063404  0.4212796274706335
  0.1244153480308852  0.7099949253654164  0.4232836817920428
  0.6242883587927476  0.2120155571087411  0.4202501057613017
  0.5469559679293279  0.3816110907631507  0.3188250347704810
  0.5398421989597094  0.1273766782926435  0.3175866179954501
  0.5504137822619640  0.1280022993528306  0.0460340501905077
  0.1261479592927400  0.4525150520378022  0.1259270056187994
  0.0430832994623080  0.1235060187090204  0.3164891230464521
  0.0337300607970219  0.1385977105136905  0.0351400867624094
  0.1228908513289216  0.9665971749845751  0.1289698956064200
  0.3732822900371868  0.4615084894882865  0.4228457419344089
  0.4625319605852266  0.5416881494753805  0.2209825749278292
  0.6230101403212410  0.7101546949925556  0.4235534025971837
  0.9532162117356636  0.7948985928522623  0.2217718098180718
  0.7818845189733153  0.6308875325052898  0.3191150364661032
  0.2976412400971395  0.6286475829452552  0.3197574894232461
  0.3878106665009094  0.7102568132986116  0.1238885244447434
  0.2069274680340785  0.2854969211023631  0.2239691247000639
  0.7021156727107601  0.5548622472401734  0.2209321113094681
  0.2157257506670557  0.7995513114201579  0.2238894988603423
  0.4609532349254348  0.0257456559366989  0.2202237914036106
  0.6986885546368740  0.0526088669419095  0.2148388443586808
  0.7900871658163271  0.1306713484975270  0.3148021486686778
  0.9514708108082753  0.2920263963087286  0.2201965623684146
  0.7831155029871717  0.8840132952649750  0.0420356132576883
  0.0555744899369479  0.8598162582990518  0.0403937328214334
  0.0569586243381177  0.6317155611331506  0.0385965165870664
  0.6268843912429725  0.2309263147224204  0.1308004218839862
  0.3781742489732956  0.9526317610704437  0.1285607180664438
  0.0142785784558541  0.3825314588813867  0.0417329115758408
  0.8707276082414948  0.2171775316905471  0.1291806681049971
  0.9526674130261533  0.5429574513686271  0.2255317469363367
  0.5413812305928213  0.6277006339141498  0.3235064696478012
  0.2967616091907379  0.1124762401419585  0.0436003883584434
  0.5701735347365314  0.6110277410979685  0.0430012260556165
  0.3053666716678805  0.3863996943569362  0.0441098632766171
  0.6317510180851406  0.9367993374903706  0.1289895497719114
  0.7066582196202411  0.7896806606833300  0.2229084631587874
  0.6292653995003977  0.4564511102392907  0.1293030793954305
  0.2945023270140980  0.8748050914030946  0.3209466160669097
  0.2926940480270097  0.8897622056613799  0.0387680802252455
  0.6262823631510688  0.7177252868081656  0.1294815079591515
  0.2197485786439578  0.0333106319016207  0.2261018306962912
  0.5403232415930422  0.3824218485687161  0.0383801262909776
  0.3765116473537453  0.2136613051517756  0.1335592562856064
  0.1332164474557178  0.7035300148153278  0.1345636078053707
  0.5394564261936471  0.8685098324653346  0.3201678445187096
  0.7936771994036639  0.1288268928336795  0.0383863474058450
  0.5449238169665731  0.8701442196113642  0.0375944593009744
  0.2122402208354636  0.5407821926675943  0.2231369116126951
  0.8784656677469787  0.9650821607269786  0.1283763214383633
  0.7104040120670280  0.2976578369968625  0.2233407918678087
  0.4563021495080658  0.2987622693468839  0.2229235603662444
  0.8697421932018502  0.4593515103599110  0.1298847924553395
  0.1351187883496072  0.2031274787691447  0.1293593711473456
  0.7836796833754192  0.6169685607891292  0.0404982500549502
  0.2865978096159864  0.6194762271397760  0.0438267909596599
  0.3838803161753500  0.4538954863288074  0.1300230618073375
  0.7844044072646672  0.3858476918502011  0.3195826484486893
  0.7880148005554489  0.3751632188840565  0.0421007379798522
  0.9590494098977983  0.0468039011328993  0.2219032412245142
  0.4610853195033777  0.7918051919579118  0.2274038970480191
 
  0.00000000E+00  0.00000000E+00  0.00000000E+00
  0.00000000E+00  0.00000000E+00  0.00000000E+00
  0.00000000E+00  0.00000000E+00  0.00000000E+00
  0.00000000E+00  0.00000000E+00  0.00000000E+00
  0.00000000E+00  0.00000000E+00  0.00000000E+00
  0.00000000E+00  0.00000000E+00  0.00000000E+00
  0.00000000E+00  0.00000000E+00  0.00000000E+00
  0.00000000E+00  0.00000000E+00  0.00000000E+00
  0.00000000E+00  0.00000000E+00  0.00000000E+00
  0.00000000E+00  0.00000000E+00  0.00000000E+00
  0.00000000E+00  0.00000000E+00  0.00000000E+00
  0.00000000E+00  0.00000000E+00  0.00000000E+00
  0.00000000E+00  0.00000000E+00  0.00000000E+00
  0.00000000E+00  0.00000000E+00  0.00000000E+00
  0.00000000E+00  0.00000000E+00  0.00000000E+00
  0.00000000E+00  0.00000000E+00  0.00000000E+00
  0.00000000E+00  0.00000000E+00  0.00000000E+00
  0.00000000E+00  0.00000000E+00  0.00000000E+00
  0.00000000E+00  0.00000000E+00  0.00000000E+00
  0.00000000E+00  0.00000000E+00  0.00000000E+00
  0.00000000E+00  0.00000000E+00  0.00000000E+00
  0.00000000E+00  0.00000000E+00  0.00000000E+00
  0.00000000E+00  0.00000000E+00  0.00000000E+00
  0.00000000E+00  0.00000000E+00  0.00000000E+00
  0.00000000E+00  0.00000000E+00  0.00000000E+00
  0.00000000E+00  0.00000000E+00  0.00000000E+00
  0.00000000E+00  0.00000000E+00  0.00000000E+00
  0.00000000E+00  0.00000000E+00  0.00000000E+00
  0.00000000E+00  0.00000000E+00  0.00000000E+00
  0.00000000E+00  0.00000000E+00  0.00000000E+00
  0.00000000E+00  0.00000000E+00  0.00000000E+00
  0.00000000E+00  0.00000000E+00  0.00000000E+00
  0.00000000E+00  0.00000000E+00  0.00000000E+00
  0.00000000E+00  0.00000000E+00  0.00000000E+00
  0.00000000E+00  0.00000000E+00  0.00000000E+00
  0.00000000E+00  0.00000000E+00  0.00000000E+00
  0.00000000E+00  0.00000000E+00  0.00000000E+00
  0.00000000E+00  0.00000000E+00  0.00000000E+00
  0.00000000E+00  0.00000000E+00  0.00000000E+00
  0.00000000E+00  0.00000000E+00  0.00000000E+00
  0.00000000E+00  0.00000000E+00  0.00000000E+00
  0.00000000E+00  0.00000000E+00  0.00000000E+00
  0.00000000E+00  0.00000000E+00  0.00000000E+00
  0.00000000E+00  0.00000000E+00  0.00000000E+00
  0.00000000E+00  0.00000000E+00  0.00000000E+00
  0.00000000E+00  0.00000000E+00  0.00000000E+00
  0.00000000E+00  0.00000000E+00  0.00000000E+00
  0.00000000E+00  0.00000000E+00  0.00000000E+00
  0.00000000E+00  0.00000000E+00  0.00000000E+00
  0.00000000E+00  0.00000000E+00  0.00000000E+00
  0.00000000E+00  0.00000000E+00  0.00000000E+00
  0.00000000E+00  0.00000000E+00  0.00000000E+00
  0.00000000E+00  0.00000000E+00  0.00000000E+00
  0.00000000E+00  0.00000000E+00  0.00000000E+00
  0.00000000E+00  0.00000000E+00  0.00000000E+00
  0.00000000E+00  0.00000000E+00  0.00000000E+00
  0.00000000E+00  0.00000000E+00  0.00000000E+00
  0.00000000E+00  0.00000000E+00  0.00000000E+00
  0.00000000E+00  0.00000000E+00  0.00000000E+00
  0.00000000E+00  0.00000000E+00  0.00000000E+00
  0.00000000E+00  0.00000000E+00  0.00000000E+00
  0.00000000E+00  0.00000000E+00  0.00000000E+00
  0.00000000E+00  0.00000000E+00  0.00000000E+00
  0.00000000E+00  0.00000000E+00  0.00000000E+00
  0.00000000E+00  0.00000000E+00  0.00000000E+00
  0.00000000E+00  0.00000000E+00  0.00000000E+00
  0.00000000E+00  0.00000000E+00  0.00000000E+00
  0.00000000E+00  0.00000000E+00  0.00000000E+00
  0.00000000E+00  0.00000000E+00  0.00000000E+00
  0.00000000E+00  0.00000000E+00  0.00000000E+00
  0.00000000E+00  0.00000000E+00  0.00000000E+00
  0.00000000E+00  0.00000000E+00  0.00000000E+00
  0.00000000E+00  0.00000000E+00  0.00000000E+00
  0.00000000E+00  0.00000000E+00  0.00000000E+00
  0.00000000E+00  0.00000000E+00  0.00000000E+00
  0.00000000E+00  0.00000000E+00  0.00000000E+00
  0.00000000E+00  0.00000000E+00  0.00000000E+00
  0.00000000E+00  0.00000000E+00  0.00000000E+00
  0.00000000E+00  0.00000000E+00  0.00000000E+00
  0.00000000E+00  0.00000000E+00  0.00000000E+00
