10.66                                   
   1.00000000000000     
    10.6599998474000000    0.0000000000000000    0.0000000000000000
     5.3299999237000000    9.2318306721999992    0.0000000000000000
     0.0000000000000000    0.0000000000000000   22.0000000000000000
   Pt   Fe   Co   Cu   Ni   H 
    32    13    10    13    12     1
Selective dynamics
Direct
  0.7877952653174134  0.8779619539066417  0.3173237991090900   F   F   F
  0.0437023579847917  0.8817144719748455  0.3145349016409114   F   F   F
  0.2805773063026251  0.3796321796990654  0.3187704232909070   F   F   F
  0.8779385040734908  0.9622499900318289  0.4221609485500011   F   F   F
  0.1238884440026453  0.4619968180464511  0.4265668607045470   F   F   F
  0.1274345230303595  0.9599812844257940  0.4197466810045469   F   F   F
  0.8780719670953445  0.4573861158454022  0.4256258221454559   F   F   F
  0.3742072578712978  0.9607564285932000  0.4178395294363639   F   F   F
  0.8765173981381835  0.2105524464669131  0.4188202938090910   F   F   F
  0.1278449268973887  0.2107920686803766  0.4206195740590886   F   F   F
  0.6265315022532931  0.9623501520292521  0.4284165850954551   F   F   F
  0.8795850007482855  0.7087201582782967  0.4242436795999964   F   F   F
  0.3761651494380160  0.2095933305976558  0.4228105468181838   F   F   F
  0.3781952773573281  0.7112664025428046  0.4212281731454510   F   F   F
  0.6283489011673211  0.4621450259857625  0.4201305347863666   F   F   F
  0.1271599026381693  0.7100525488665497  0.4246469818636385   F   F   F
  0.6278923515568451  0.2094265571856795  0.4204034320681842   F   F   F
  0.5497753623734454  0.3741004354856727  0.3165915276363620   F   F   F
  0.5368011453543104  0.1225676324748193  0.3158007176090933   F   F   F
  0.5486022592113002  0.1220783678684398  0.0417194611409073   F   F   F
  0.1203770114094098  0.4596758926676330  0.1283201030954544   F   F   F
  0.0451335435970677  0.1357061018756127  0.3132675467545454   F   F   F
  0.0418426388172080  0.1305148925801163  0.0343023685500015   F   F   F
  0.1308766909586225  0.9576410281464973  0.1324593496136330   F   F   F
  0.3772562880275885  0.4602004448796464  0.4241660962681806   F   F   F
  0.4561478079778851  0.5450539124111629  0.2187412014454537   F   F   F
  0.6264443563598547  0.7085438736325074  0.4282206413818201   F   F   F
  0.9564863099286569  0.7882135391859322  0.2208645550409116   F   F   F
  0.7935951108301182  0.6230042073149704  0.3196238847090882   F   F   F
  0.2921356997618219  0.6297530238403439  0.3174330991954548   F   F   F
  0.2028036232349919  0.2796419757972899  0.2253282043409115   F   F   F
  0.7065609983383183  0.5496639716086520  0.2211481154818173   F   F   F
  0.0413172067289622  0.6303865380811970  0.3245811935500029   F   F   F
  0.7960105560665554  0.8618201000109948  0.0435832611454572   F   F   F
  0.0565437832242921  0.8651109997121225  0.0392200758363614   F   F   F
  0.0435481061810350  0.6317236463144766  0.0389093084545422   F   F   F
  0.6276815134142240  0.2235163201393817  0.1293691217272723   F   F   F
  0.3825164796165623  0.9540841432375444  0.1307328652727264   F   F   F
  0.0361358407861019  0.3835395318571457  0.3238168762818177   F   F   F
  0.0278953743126209  0.3811135671600852  0.0392268803136346   F   F   F
  0.8723854835080758  0.2152433571581582  0.1290949134499968   F   F   F
  0.9549232329901542  0.5444232866764978  0.2244177007000019   F   F   F
  0.2988919896159246  0.1142814143761370  0.3198833594500030   F   F   F
  0.5414736960521225  0.6283841865589110  0.3211383698590922   F   F   F
  0.2959387413066850  0.1156684851700760  0.0410976887409120   F   F   F
  0.5491575652165039  0.6253534475437093  0.0451299578272710   F   F   F
  0.2944436057289366  0.3818825695120651  0.0395469972636349   F   F   F
  0.6257779840731033  0.9479981115397109  0.1328387403227254   F   F   F
  0.7070545686674876  0.7934958311528817  0.2207616180818164   F   F   F
  0.8652306351059451  0.7044347069518153  0.1296516185590875   F   F   F
  0.6267408805099777  0.4597839886277342  0.1279108792227248   F   F   F
  0.2994125640504706  0.8738860022307406  0.3174014686363620   F   F   F
  0.3065683121091567  0.8685951938597540  0.0415361194227302   F   F   F
  0.6265607890783187  0.7150544964909855  0.1290314723727306   F   F   F
  0.2263353932444332  0.0270723730616709  0.2270845764863623   F   F   F
  0.5442540274210828  0.3813987627289208  0.0359396309863627   F   F   F
  0.3788308164937106  0.2041435759404919  0.1334105030954547   F   F   F
  0.1370202990309650  0.7046968196449441  0.1327566403363605   F   F   F
  0.7053662541270853  0.0497850004207763  0.2208007002590904   F   F   F
  0.7945583041848181  0.1286400263141942  0.3163042877636357   F   F   F
  0.5407226830194034  0.8712773997384389  0.3178685436727307   F   F   F
  0.7969090446290110  0.1230080278139880  0.0358981495909063   F   F   F
  0.5463967724760010  0.8699164031445790  0.0370350138545490   F   F   F
  0.2085761225413094  0.5415666101800980  0.2236365869136350   F   F   F
  0.9516870403148161  0.2975778788136410  0.2216358201636339   F   F   F
  0.8720363512232439  0.9641267701868443  0.1296642823045460   F   F   F
  0.7161917697870024  0.2893178843220170  0.2236095876999968   F   F   F
  0.4581923611691252  0.2911374576868724  0.2211008559772694   F   F   F
  0.8754952507754368  0.4570332552356646  0.1289402077090926   F   F   F
  0.1280802376379100  0.2061871464271974  0.1293457843363655   F   F   F
  0.7920109362154477  0.6217651118845851  0.0414976089772736   F   F   F
  0.2975223793196520  0.6287043760646469  0.0435603156136395   F   F   F
  0.3861497401569878  0.7125257726301442  0.1296682481727274   F   F   F
  0.3823461753116746  0.4514638794503369  0.1268844718136393   F   F   F
  0.7946851341567651  0.3789682402576275  0.3198118796545444   F   F   F
  0.7914206266351727  0.3768939204309305  0.0409385091409078   F   F   F
  0.9560957532460677  0.0530531819409177  0.2214248432090926   F   F   F
  0.4595998590641130  0.7963344457170436  0.2249097830272717   F   F   F
  0.2160096095433488  0.7965897795705033  0.2245061691999979   F   F   F
  0.4633574525549093  0.0292423067737744  0.2231982463909077   F   F   F
  0.6304868902052831  0.8428321551467306  0.4794118841227252   T   T   T
 
  0.00000000E+00  0.00000000E+00  0.00000000E+00
  0.00000000E+00  0.00000000E+00  0.00000000E+00
  0.00000000E+00  0.00000000E+00  0.00000000E+00
  0.00000000E+00  0.00000000E+00  0.00000000E+00
  0.00000000E+00  0.00000000E+00  0.00000000E+00
  0.00000000E+00  0.00000000E+00  0.00000000E+00
  0.00000000E+00  0.00000000E+00  0.00000000E+00
  0.00000000E+00  0.00000000E+00  0.00000000E+00
  0.00000000E+00  0.00000000E+00  0.00000000E+00
  0.00000000E+00  0.00000000E+00  0.00000000E+00
  0.00000000E+00  0.00000000E+00  0.00000000E+00
  0.00000000E+00  0.00000000E+00  0.00000000E+00
  0.00000000E+00  0.00000000E+00  0.00000000E+00
  0.00000000E+00  0.00000000E+00  0.00000000E+00
  0.00000000E+00  0.00000000E+00  0.00000000E+00
  0.00000000E+00  0.00000000E+00  0.00000000E+00
  0.00000000E+00  0.00000000E+00  0.00000000E+00
  0.00000000E+00  0.00000000E+00  0.00000000E+00
  0.00000000E+00  0.00000000E+00  0.00000000E+00
  0.00000000E+00  0.00000000E+00  0.00000000E+00
  0.00000000E+00  0.00000000E+00  0.00000000E+00
  0.00000000E+00  0.00000000E+00  0.00000000E+00
  0.00000000E+00  0.00000000E+00  0.00000000E+00
  0.00000000E+00  0.00000000E+00  0.00000000E+00
  0.00000000E+00  0.00000000E+00  0.00000000E+00
  0.00000000E+00  0.00000000E+00  0.00000000E+00
  0.00000000E+00  0.00000000E+00  0.00000000E+00
  0.00000000E+00  0.00000000E+00  0.00000000E+00
  0.00000000E+00  0.00000000E+00  0.00000000E+00
  0.00000000E+00  0.00000000E+00  0.00000000E+00
  0.00000000E+00  0.00000000E+00  0.00000000E+00
  0.00000000E+00  0.00000000E+00  0.00000000E+00
  0.00000000E+00  0.00000000E+00  0.00000000E+00
  0.00000000E+00  0.00000000E+00  0.00000000E+00
  0.00000000E+00  0.00000000E+00  0.00000000E+00
  0.00000000E+00  0.00000000E+00  0.00000000E+00
  0.00000000E+00  0.00000000E+00  0.00000000E+00
  0.00000000E+00  0.00000000E+00  0.00000000E+00
  0.00000000E+00  0.00000000E+00  0.00000000E+00
  0.00000000E+00  0.00000000E+00  0.00000000E+00
  0.00000000E+00  0.00000000E+00  0.00000000E+00
  0.00000000E+00  0.00000000E+00  0.00000000E+00
  0.00000000E+00  0.00000000E+00  0.00000000E+00
  0.00000000E+00  0.00000000E+00  0.00000000E+00
  0.00000000E+00  0.00000000E+00  0.00000000E+00
  0.00000000E+00  0.00000000E+00  0.00000000E+00
  0.00000000E+00  0.00000000E+00  0.00000000E+00
  0.00000000E+00  0.00000000E+00  0.00000000E+00
  0.00000000E+00  0.00000000E+00  0.00000000E+00
  0.00000000E+00  0.00000000E+00  0.00000000E+00
  0.00000000E+00  0.00000000E+00  0.00000000E+00
  0.00000000E+00  0.00000000E+00  0.00000000E+00
  0.00000000E+00  0.00000000E+00  0.00000000E+00
  0.00000000E+00  0.00000000E+00  0.00000000E+00
  0.00000000E+00  0.00000000E+00  0.00000000E+00
  0.00000000E+00  0.00000000E+00  0.00000000E+00
  0.00000000E+00  0.00000000E+00  0.00000000E+00
  0.00000000E+00  0.00000000E+00  0.00000000E+00
  0.00000000E+00  0.00000000E+00  0.00000000E+00
  0.00000000E+00  0.00000000E+00  0.00000000E+00
  0.00000000E+00  0.00000000E+00  0.00000000E+00
  0.00000000E+00  0.00000000E+00  0.00000000E+00
  0.00000000E+00  0.00000000E+00  0.00000000E+00
  0.00000000E+00  0.00000000E+00  0.00000000E+00
  0.00000000E+00  0.00000000E+00  0.00000000E+00
  0.00000000E+00  0.00000000E+00  0.00000000E+00
  0.00000000E+00  0.00000000E+00  0.00000000E+00
  0.00000000E+00  0.00000000E+00  0.00000000E+00
  0.00000000E+00  0.00000000E+00  0.00000000E+00
  0.00000000E+00  0.00000000E+00  0.00000000E+00
  0.00000000E+00  0.00000000E+00  0.00000000E+00
  0.00000000E+00  0.00000000E+00  0.00000000E+00
  0.00000000E+00  0.00000000E+00  0.00000000E+00
  0.00000000E+00  0.00000000E+00  0.00000000E+00
  0.00000000E+00  0.00000000E+00  0.00000000E+00
  0.00000000E+00  0.00000000E+00  0.00000000E+00
  0.00000000E+00  0.00000000E+00  0.00000000E+00
  0.00000000E+00  0.00000000E+00  0.00000000E+00
  0.00000000E+00  0.00000000E+00  0.00000000E+00
  0.00000000E+00  0.00000000E+00  0.00000000E+00
  0.00000000E+00  0.00000000E+00  0.00000000E+00
