11.26                                   
   1.00000000000000     
    11.2227001190000006    0.0000000000000000    0.0000000000000000
     5.6113500595000003    9.7191434021000003    0.0000000000000000
     0.0000000000000000    0.0000000000000000   22.0000000000000000
   Pt   Fe   Co   Cu   Ni
    32    13    10    13    12
Direct
  0.7805553381661454  0.8742813932907012  0.3051047398791980
  0.0338372053657992  0.8725416105064170  0.2997134788140983
  0.2757005661612695  0.3644791660829725  0.3134003778650722
  0.8717838811244931  0.9565349921372643  0.4059062837610412
  0.1086677789612835  0.4635712549080182  0.4127075769717194
  0.1218478556591620  0.9481385898048842  0.4067979800220769
  0.8726709853662271  0.4471010390496346  0.4156886985868553
  0.3704532062476602  0.9511727629502076  0.4135887338033655
  0.8685694750214381  0.2041242142178916  0.4074080321422855
  0.1257680321600816  0.2063465522299168  0.4124027721052954
  0.6234047439185204  0.9501418101014920  0.4107312648076444
  0.8683039197960767  0.7084756179316472  0.4126377562396755
  0.3759974545771954  0.1956704906006976  0.4143518880790822
  0.3711729952298128  0.7028340105080062  0.4085597839491157
  0.6227226801022212  0.4534712374279479  0.4132172407072261
  0.1156999609316074  0.7054389319266789  0.4103757636336098
  0.6228364983749444  0.2000249973114663  0.4101433521333675
  0.5385547320274497  0.3711586350693068  0.3130751545118642
  0.5280474518349010  0.1194111397691984  0.3093214921824483
  0.5501868840335078  0.1164965106895437  0.0582640544675073
  0.1019162647022256  0.4242858277168366  0.1235701587638403
  0.0482609889676695  0.1254277148524210  0.3106983359597706
  0.0189883466328524  0.1155467687923561  0.0420037656871557
  0.1293181384467061  0.9460466758195167  0.1398261328081674
  0.3651570576747147  0.4535748655846916  0.4126045697634808
  0.4544797366910842  0.5537463959180613  0.2233403215279850
  0.6190564238945271  0.7028611272059351  0.4140628774248754
  0.9461888267229526  0.7631683994252541  0.2095694868868563
  0.7957147402570257  0.6158344925409338  0.3154193837092123
  0.2727002646444490  0.6181685059556301  0.3096291129201418
  0.1882645772396430  0.2636414716525195  0.2254172285532192
  0.6977519575074425  0.5502019128891646  0.2209777309757612
  0.0326856884448290  0.6279087999399948  0.3136835100874293
  0.7928393196163981  0.8560340094686794  0.0637265647824066
  0.0448467828517707  0.8517041298991614  0.0552799034791462
  0.0465966927890733  0.6407053703474332  0.0669764247784812
  0.6232434434861389  0.2350622859297431  0.1343496617741025
  0.3783455494624235  0.9413884154408692  0.1359370984781236
  0.0297604561967759  0.3765520699992280  0.3193814296630961
  0.9863642135466577  0.3560610222762719  0.0444475393372983
  0.8583991212664088  0.2138732274038802  0.1338770355963206
  0.9492336429698298  0.5274628723619657  0.2214699197884116
  0.2976869822262600  0.1070732284139950  0.3191676753311512
  0.5445706147306026  0.6165040186043171  0.3202235553995720
  0.2716718306169597  0.0951280081259824  0.0531275102514144
  0.5333083194266948  0.6220640630993444  0.0486859311274017
  0.2967322059898407  0.3985805862157221  0.0609583384196455
  0.6174037951588431  0.9317147754287873  0.1392419160376122
  0.7005022147890045  0.7790961013140389  0.2199904395971046
  0.8432509624831468  0.6716638721652188  0.1307914274764670
  0.6141798138456593  0.4649526351633000  0.1307092043374425
  0.2964017182387764  0.8767060634290900  0.3176865132428048
  0.2965917982004243  0.8697475483427510  0.0484816310812022
  0.6027785900841707  0.7159205159188389  0.1305232936156600
  0.2333797946081262  0.0139067312310246  0.2281661743863594
  0.5314419688109666  0.3787608336120698  0.0418762084475048
  0.3609585382323814  0.1931568721843107  0.1372541959360021
  0.1650569578293215  0.6950909957423832  0.1492921437419028
  0.6897076226800323  0.0583477731855169  0.2181714015769245
  0.7847073398562188  0.1248018156639503  0.3103899688759100
  0.5391290841931919  0.8650472101468054  0.3162194648891372
  0.7806012636624544  0.1201650336740556  0.0436963759657587
  0.5320527635147840  0.8776743407274452  0.0440715778701772
  0.1978980275145261  0.5119660551340175  0.2179062998292451
  0.9368866098319018  0.2993948934034947  0.2259241651084025
  0.8633885013865381  0.9786047175251795  0.1382107960909948
  0.7085948788720842  0.2972340367947410  0.2261621382718104
  0.4494564874721192  0.2887049554924701  0.2201124516238266
  0.8584829259946716  0.4366852581257419  0.1323468521826214
  0.1078350239892103  0.1882535224200410  0.1350283251812954
  0.7649129827597534  0.5958110743779130  0.0475540568105757
  0.2917480954635892  0.6217614699675096  0.0540898569923272
  0.3813083155561117  0.7122784992749800  0.1339330423663441
  0.3942981853457184  0.4525844928940757  0.1369241024243024
  0.7822798421448596  0.3832385945774774  0.3180691459381748
  0.7694089742415855  0.3612218744942410  0.0457409275290317
  0.9429841475891720  0.0685675337534164  0.2217564282645057
  0.4624688825268848  0.7889596098015943  0.2279715905731834
  0.2370119136447499  0.7929379761584414  0.2297113573255842
  0.4552168574172981  0.0169431744812485  0.2248589504727860
 
  0.00000000E+00  0.00000000E+00  0.00000000E+00
  0.00000000E+00  0.00000000E+00  0.00000000E+00
  0.00000000E+00  0.00000000E+00  0.00000000E+00
  0.00000000E+00  0.00000000E+00  0.00000000E+00
  0.00000000E+00  0.00000000E+00  0.00000000E+00
  0.00000000E+00  0.00000000E+00  0.00000000E+00
  0.00000000E+00  0.00000000E+00  0.00000000E+00
  0.00000000E+00  0.00000000E+00  0.00000000E+00
  0.00000000E+00  0.00000000E+00  0.00000000E+00
  0.00000000E+00  0.00000000E+00  0.00000000E+00
  0.00000000E+00  0.00000000E+00  0.00000000E+00
  0.00000000E+00  0.00000000E+00  0.00000000E+00
  0.00000000E+00  0.00000000E+00  0.00000000E+00
  0.00000000E+00  0.00000000E+00  0.00000000E+00
  0.00000000E+00  0.00000000E+00  0.00000000E+00
  0.00000000E+00  0.00000000E+00  0.00000000E+00
  0.00000000E+00  0.00000000E+00  0.00000000E+00
  0.00000000E+00  0.00000000E+00  0.00000000E+00
  0.00000000E+00  0.00000000E+00  0.00000000E+00
  0.00000000E+00  0.00000000E+00  0.00000000E+00
  0.00000000E+00  0.00000000E+00  0.00000000E+00
  0.00000000E+00  0.00000000E+00  0.00000000E+00
  0.00000000E+00  0.00000000E+00  0.00000000E+00
  0.00000000E+00  0.00000000E+00  0.00000000E+00
  0.00000000E+00  0.00000000E+00  0.00000000E+00
  0.00000000E+00  0.00000000E+00  0.00000000E+00
  0.00000000E+00  0.00000000E+00  0.00000000E+00
  0.00000000E+00  0.00000000E+00  0.00000000E+00
  0.00000000E+00  0.00000000E+00  0.00000000E+00
  0.00000000E+00  0.00000000E+00  0.00000000E+00
  0.00000000E+00  0.00000000E+00  0.00000000E+00
  0.00000000E+00  0.00000000E+00  0.00000000E+00
  0.00000000E+00  0.00000000E+00  0.00000000E+00
  0.00000000E+00  0.00000000E+00  0.00000000E+00
  0.00000000E+00  0.00000000E+00  0.00000000E+00
  0.00000000E+00  0.00000000E+00  0.00000000E+00
  0.00000000E+00  0.00000000E+00  0.00000000E+00
  0.00000000E+00  0.00000000E+00  0.00000000E+00
  0.00000000E+00  0.00000000E+00  0.00000000E+00
  0.00000000E+00  0.00000000E+00  0.00000000E+00
  0.00000000E+00  0.00000000E+00  0.00000000E+00
  0.00000000E+00  0.00000000E+00  0.00000000E+00
  0.00000000E+00  0.00000000E+00  0.00000000E+00
  0.00000000E+00  0.00000000E+00  0.00000000E+00
  0.00000000E+00  0.00000000E+00  0.00000000E+00
  0.00000000E+00  0.00000000E+00  0.00000000E+00
  0.00000000E+00  0.00000000E+00  0.00000000E+00
  0.00000000E+00  0.00000000E+00  0.00000000E+00
  0.00000000E+00  0.00000000E+00  0.00000000E+00
  0.00000000E+00  0.00000000E+00  0.00000000E+00
  0.00000000E+00  0.00000000E+00  0.00000000E+00
  0.00000000E+00  0.00000000E+00  0.00000000E+00
  0.00000000E+00  0.00000000E+00  0.00000000E+00
  0.00000000E+00  0.00000000E+00  0.00000000E+00
  0.00000000E+00  0.00000000E+00  0.00000000E+00
  0.00000000E+00  0.00000000E+00  0.00000000E+00
  0.00000000E+00  0.00000000E+00  0.00000000E+00
  0.00000000E+00  0.00000000E+00  0.00000000E+00
  0.00000000E+00  0.00000000E+00  0.00000000E+00
  0.00000000E+00  0.00000000E+00  0.00000000E+00
  0.00000000E+00  0.00000000E+00  0.00000000E+00
  0.00000000E+00  0.00000000E+00  0.00000000E+00
  0.00000000E+00  0.00000000E+00  0.00000000E+00
  0.00000000E+00  0.00000000E+00  0.00000000E+00
  0.00000000E+00  0.00000000E+00  0.00000000E+00
  0.00000000E+00  0.00000000E+00  0.00000000E+00
  0.00000000E+00  0.00000000E+00  0.00000000E+00
  0.00000000E+00  0.00000000E+00  0.00000000E+00
  0.00000000E+00  0.00000000E+00  0.00000000E+00
  0.00000000E+00  0.00000000E+00  0.00000000E+00
  0.00000000E+00  0.00000000E+00  0.00000000E+00
  0.00000000E+00  0.00000000E+00  0.00000000E+00
  0.00000000E+00  0.00000000E+00  0.00000000E+00
  0.00000000E+00  0.00000000E+00  0.00000000E+00
  0.00000000E+00  0.00000000E+00  0.00000000E+00
  0.00000000E+00  0.00000000E+00  0.00000000E+00
  0.00000000E+00  0.00000000E+00  0.00000000E+00
  0.00000000E+00  0.00000000E+00  0.00000000E+00
  0.00000000E+00  0.00000000E+00  0.00000000E+00
  0.00000000E+00  0.00000000E+00  0.00000000E+00
