10.46-high                              
   1.00000000000000     
    10.4600000381000005    0.0000000000000000    0.0000000000000000
     5.2300000191000002    9.0586257565999997    0.0000000000000000
     0.0000000000000000    0.0000000000000000   22.0000000000000000
   Pt   Fe   Co   Cu   Ni
    42    10     9    10     9
Direct
  0.7771048400620765  0.8678813544659224  0.3232365739899064
  0.0384133930628749  0.8681966376258233  0.3254097046897380
  0.0331851145425084  0.6189704127795496  0.3269801436322090
  0.0295656623211172  0.3677392706457491  0.3256996204626889
  0.2877917533227204  0.1085850253256297  0.3236919755403327
  0.2856642013831217  0.3692172284217465  0.3234988728206784
  0.8646688667110592  0.7049857218279112  0.1222998459032543
  0.8694814550854825  0.9516769570684724  0.4322746751346975
  0.1185648408410356  0.4534551861417646  0.4343858576738255
  0.1197260526602133  0.9523910203111264  0.4303959176962285
  0.8688794104517097  0.4519071204241690  0.4325983774420911
  0.3697539131541758  0.9508465740482644  0.4289229704285055
  0.8687912990058124  0.2032847635117811  0.4281156841733232
  0.1189753647484745  0.2017186696347779  0.4406356109297256
  0.6195610191478996  0.9515142932790031  0.4312373615467731
  0.8680312491572248  0.7034041226408744  0.4377214999056330
  0.3694513968913855  0.2012916787107535  0.4336189078314692
  0.3695891748583405  0.7041401522911809  0.4312015456979047
  0.6202998616112699  0.4535098033935965  0.4292003707831383
  0.1193499848560346  0.7032768669378103  0.4456272553303625
  0.6190161240279892  0.2032124630326869  0.4339864901323701
  0.5392571382364405  0.3736034189200201  0.3221849902949105
  0.5338257462064250  0.1181996911197472  0.3219693377400550
  0.5387088512756818  0.1180223551600094  0.0323852709910119
  0.1229061709737514  0.4482501007637966  0.1229069035157671
  0.0343032778816339  0.1176134496945545  0.3198755464967712
  0.0334052517936391  0.1263050606298372  0.0270631951969907
  0.1140217964582059  0.9592386695473739  0.1256205176267545
  0.3680847147359168  0.4538132056321679  0.4329454890072866
  0.4535746352781915  0.5294572563882769  0.2203990907347443
  0.6184514951552944  0.7023410816913040  0.4357555085945040
  0.9489901286675280  0.7827401931933580  0.2236112927831367
  0.7732466331299934  0.6201836627952173  0.3228844010806804
  0.2901839534787132  0.6224351191496156  0.3248858497704942
  0.3775393094894605  0.6996762449430747  0.1228007942750969
  0.1990148471286872  0.2847226454153013  0.2228073795663311
  0.6985210777487432  0.5449135944523749  0.2191953673617028
  0.2021375855399004  0.7918218705520121  0.2238942117465612
  0.4509136653394946  0.0227837562709569  0.2188853680357330
  0.6963785316794356  0.0426407037583005  0.2154283273955997
  0.7835274643255944  0.1223439547359460  0.3198095846497535
  0.9473702621209347  0.2812972945989901  0.2183517366996290
  0.7886738998306246  0.8644280814926242  0.0287872623158930
  0.0450368883631342  0.8626276489856328  0.0295607665090828
  0.0419381975228891  0.6177767605514218  0.0278294190181426
  0.6176174256841430  0.2140362995858908  0.1243319946129664
  0.3690119512568956  0.9519865784435267  0.1225268454038076
  0.0249286750868927  0.3766440291808083  0.0322170301094501
  0.8625311796587578  0.2106725003257196  0.1232886787218006
  0.9476742631206969  0.5365923624036120  0.2262523118155270
  0.5332064789461821  0.6220088144815514  0.3272654176636539
  0.2883772792410841  0.1137155415690419  0.0325338951322915
  0.5504824370669342  0.6126948362371396  0.0356175684401487
  0.2897445253490137  0.3746422176723657  0.0322482032503174
  0.6142260822591995  0.9430301443611774  0.1245923543939659
  0.6989436254556929  0.7856199952780434  0.2205963409109201
  0.6229743597825567  0.4501393239035161  0.1238703897264102
  0.2905473511411487  0.8654801998870695  0.3207061912403775
  0.2909193899635017  0.8681523115079304  0.0312663867162482
  0.6201044434624472  0.7062131745065762  0.1241399172557093
  0.2056123148492566  0.0307007232458836  0.2259227323909838
  0.5362577618230934  0.3750077844055437  0.0295104457389337
  0.3717786694986285  0.2013498079340765  0.1265723707288945
  0.1215433754993396  0.7002740451324577  0.1260872507088731
  0.5308969062966258  0.8628992583518195  0.3224612202145813
  0.7868756057003327  0.1205942171393932  0.0274876941546558
  0.5384325039975848  0.8622688448799440  0.0293575658124564
  0.2017867439150632  0.5350951556284952  0.2228108849459588
  0.8649812279914160  0.9577480135221573  0.1220255712875087
  0.7014941727205340  0.2859032246798405  0.2208637712027245
  0.4474190286740234  0.2876732952159279  0.2205316131029953
  0.8678252032269173  0.4486707153050926  0.1240203390825002
  0.1229174386545252  0.2020265459102470  0.1240552036188205
  0.7843223852518358  0.6138230711769320  0.0322942665120380
  0.2837197673067591  0.6160386480351256  0.0336797180731311
  0.3761449523881369  0.4443193886640426  0.1229033649743262
  0.7810893856680615  0.3728426639719454  0.3216650109406496
  0.7825934518527190  0.3730426695895127  0.0335873097704000
  0.9480028401644440  0.0375464221544904  0.2205562646897226
  0.4523283707827208  0.7840277677526097  0.2263070465047675
 
  0.00000000E+00  0.00000000E+00  0.00000000E+00
  0.00000000E+00  0.00000000E+00  0.00000000E+00
  0.00000000E+00  0.00000000E+00  0.00000000E+00
  0.00000000E+00  0.00000000E+00  0.00000000E+00
  0.00000000E+00  0.00000000E+00  0.00000000E+00
  0.00000000E+00  0.00000000E+00  0.00000000E+00
  0.00000000E+00  0.00000000E+00  0.00000000E+00
  0.00000000E+00  0.00000000E+00  0.00000000E+00
  0.00000000E+00  0.00000000E+00  0.00000000E+00
  0.00000000E+00  0.00000000E+00  0.00000000E+00
  0.00000000E+00  0.00000000E+00  0.00000000E+00
  0.00000000E+00  0.00000000E+00  0.00000000E+00
  0.00000000E+00  0.00000000E+00  0.00000000E+00
  0.00000000E+00  0.00000000E+00  0.00000000E+00
  0.00000000E+00  0.00000000E+00  0.00000000E+00
  0.00000000E+00  0.00000000E+00  0.00000000E+00
  0.00000000E+00  0.00000000E+00  0.00000000E+00
  0.00000000E+00  0.00000000E+00  0.00000000E+00
  0.00000000E+00  0.00000000E+00  0.00000000E+00
  0.00000000E+00  0.00000000E+00  0.00000000E+00
  0.00000000E+00  0.00000000E+00  0.00000000E+00
  0.00000000E+00  0.00000000E+00  0.00000000E+00
  0.00000000E+00  0.00000000E+00  0.00000000E+00
  0.00000000E+00  0.00000000E+00  0.00000000E+00
  0.00000000E+00  0.00000000E+00  0.00000000E+00
  0.00000000E+00  0.00000000E+00  0.00000000E+00
  0.00000000E+00  0.00000000E+00  0.00000000E+00
  0.00000000E+00  0.00000000E+00  0.00000000E+00
  0.00000000E+00  0.00000000E+00  0.00000000E+00
  0.00000000E+00  0.00000000E+00  0.00000000E+00
  0.00000000E+00  0.00000000E+00  0.00000000E+00
  0.00000000E+00  0.00000000E+00  0.00000000E+00
  0.00000000E+00  0.00000000E+00  0.00000000E+00
  0.00000000E+00  0.00000000E+00  0.00000000E+00
  0.00000000E+00  0.00000000E+00  0.00000000E+00
  0.00000000E+00  0.00000000E+00  0.00000000E+00
  0.00000000E+00  0.00000000E+00  0.00000000E+00
  0.00000000E+00  0.00000000E+00  0.00000000E+00
  0.00000000E+00  0.00000000E+00  0.00000000E+00
  0.00000000E+00  0.00000000E+00  0.00000000E+00
  0.00000000E+00  0.00000000E+00  0.00000000E+00
  0.00000000E+00  0.00000000E+00  0.00000000E+00
  0.00000000E+00  0.00000000E+00  0.00000000E+00
  0.00000000E+00  0.00000000E+00  0.00000000E+00
  0.00000000E+00  0.00000000E+00  0.00000000E+00
  0.00000000E+00  0.00000000E+00  0.00000000E+00
  0.00000000E+00  0.00000000E+00  0.00000000E+00
  0.00000000E+00  0.00000000E+00  0.00000000E+00
  0.00000000E+00  0.00000000E+00  0.00000000E+00
  0.00000000E+00  0.00000000E+00  0.00000000E+00
  0.00000000E+00  0.00000000E+00  0.00000000E+00
  0.00000000E+00  0.00000000E+00  0.00000000E+00
  0.00000000E+00  0.00000000E+00  0.00000000E+00
  0.00000000E+00  0.00000000E+00  0.00000000E+00
  0.00000000E+00  0.00000000E+00  0.00000000E+00
  0.00000000E+00  0.00000000E+00  0.00000000E+00
  0.00000000E+00  0.00000000E+00  0.00000000E+00
  0.00000000E+00  0.00000000E+00  0.00000000E+00
  0.00000000E+00  0.00000000E+00  0.00000000E+00
  0.00000000E+00  0.00000000E+00  0.00000000E+00
  0.00000000E+00  0.00000000E+00  0.00000000E+00
  0.00000000E+00  0.00000000E+00  0.00000000E+00
  0.00000000E+00  0.00000000E+00  0.00000000E+00
  0.00000000E+00  0.00000000E+00  0.00000000E+00
  0.00000000E+00  0.00000000E+00  0.00000000E+00
  0.00000000E+00  0.00000000E+00  0.00000000E+00
  0.00000000E+00  0.00000000E+00  0.00000000E+00
  0.00000000E+00  0.00000000E+00  0.00000000E+00
  0.00000000E+00  0.00000000E+00  0.00000000E+00
  0.00000000E+00  0.00000000E+00  0.00000000E+00
  0.00000000E+00  0.00000000E+00  0.00000000E+00
  0.00000000E+00  0.00000000E+00  0.00000000E+00
  0.00000000E+00  0.00000000E+00  0.00000000E+00
  0.00000000E+00  0.00000000E+00  0.00000000E+00
  0.00000000E+00  0.00000000E+00  0.00000000E+00
  0.00000000E+00  0.00000000E+00  0.00000000E+00
  0.00000000E+00  0.00000000E+00  0.00000000E+00
  0.00000000E+00  0.00000000E+00  0.00000000E+00
  0.00000000E+00  0.00000000E+00  0.00000000E+00
  0.00000000E+00  0.00000000E+00  0.00000000E+00
