11.26                                   
   1.00000000000000     
    11.2227001190000006    0.0000000000000000    0.0000000000000000
     5.6113500595000003    9.7191434021000003    0.0000000000000000
     0.0000000000000000    0.0000000000000000   22.0000000000000000
   Pt   Fe   Co   Ni   H 
    32    16    15    17     1
Selective dynamics
Direct
  0.7826506922453410  0.8709663139879963  0.3044072870521334   T   T   T
  0.0295973729662558  0.8699899258842473  0.2994239119018119   T   T   T
  0.2811072638559158  0.3599170101662625  0.3110038206000716   T   T   T
  0.8745777797234014  0.9547612703359839  0.4054386440508005   T   T   T
  0.1117762298245353  0.4573352264210478  0.4102832297946737   T   T   T
  0.1263981548034674  0.9474947052624449  0.4019642900245965   T   T   T
  0.8682654641406384  0.4468245412079890  0.4113403519640145   T   T   T
  0.3731696071611710  0.9517477671744078  0.4159442737121656   T   T   T
  0.8713699134941970  0.2004304430940669  0.4055031287497690   T   T   T
  0.1226710069917016  0.2032806782422625  0.4107653774046401   T   T   T
  0.6268705633904212  0.9451552562540965  0.4146410204711594   T   T   T
  0.8731474543076065  0.7032099082141571  0.4111406190710029   T   T   T
  0.3649790514235826  0.2055621005862340  0.4169717176634993   T   T   T
  0.3693049869452604  0.7015136751105100  0.4050477747530656   T   T   T
  0.6192795502969212  0.4548626102460117  0.4081782126939819   T   T   T
  0.1162680888603810  0.7026961824040263  0.4075167087229701   T   T   T
  0.6249510371994406  0.2048432852237233  0.4133198987844777   T   T   T
  0.5393903024036197  0.3638026108941915  0.3076077112326825   T   T   T
  0.5373213708809522  0.1119891489284273  0.3137761557299313   T   T   T
  0.5375076487171242  0.1169073699596268  0.0531220763272700   F   F   F
  0.1060159474172693  0.4196903701841279  0.1184692797545424   F   F   F
  0.0487583912713422  0.1249167814124061  0.3062119544149300   T   T   T
  0.0245780338318511  0.1097680969569268  0.0430117810681807   F   F   F
  0.1169260853325511  0.9524257744669029  0.1460113291272762   F   F   F
  0.3691325646177204  0.4552402516091074  0.4086651548766818   T   T   T
  0.4507798513754153  0.5618345619141820  0.2220556187454577   F   F   F
  0.6208458093129438  0.7033809845892788  0.4120780661657053   T   T   T
  0.9486300860078885  0.7563834836835071  0.2065586565000004   F   F   F
  0.7981903993818665  0.6155518109532478  0.3125501611026526   T   T   T
  0.2674877392295010  0.6140250363845613  0.3054956359222635   T   T   T
  0.1912446586299481  0.2608944894209628  0.2240584526999996   F   F   F
  0.6997735942738998  0.5388438066433352  0.2217140734181839   F   F   F
  0.0332098724246008  0.6215402722140581  0.3112277235659790   T   T   T
  0.7908872107797080  0.8845713640095454  0.0590154774772742   F   F   F
  0.0431671302096959  0.8645701532281578  0.0570202552818202   F   F   F
  0.0421493158309616  0.6575489276883317  0.0841343607909124   F   F   F
  0.6242636984160299  0.2112047253214158  0.1379027481681803   F   F   F
  0.3765739752082027  0.9544076052521007  0.1361219543000018   F   F   F
  0.0287872561765847  0.3724621734851083  0.3173231759893914   T   T   T
  0.9829997705121372  0.3538927260355891  0.0428426668363642   F   F   F
  0.8658294734042045  0.2056136287451196  0.1348809598181830   F   F   F
  0.9483266235558290  0.5214631290762668  0.2168444122590927   F   F   F
  0.3008609760896696  0.1076045835888357  0.3199653665240207   T   T   T
  0.5404030952772197  0.6305187246758813  0.3180028977023994   T   T   T
  0.2847406250402855  0.1106504997001707  0.0527892048909067   F   F   F
  0.5347394070459259  0.3670804573712871  0.0500104259863647   F   F   F
  0.3590277917235056  0.2092973479906135  0.1353676211954564   F   F   F
  0.1795593542393732  0.6914409692265622  0.1579673919181843   F   F   F
  0.5212171467669151  0.6245286249288711  0.0521856766999989   F   F   F
  0.3151048399582024  0.3737904076315033  0.0562376898136350   F   F   F
  0.6422458949394994  0.9322045230593474  0.1407324841545474   F   F   F
  0.6833132047318244  0.7857360920973733  0.2233291051454529   F   F   F
  0.8295527645934442  0.6808095917866908  0.1286545647090875   F   F   F
  0.6085657030912799  0.4600908835169406  0.1304246345863618   F   F   F
  0.3203181692226386  0.8754422102423800  0.3184707308982765   T   T   T
  0.2872073272789635  0.8837786298990196  0.0528704927409080   F   F   F
  0.6032048154532390  0.7172003307507424  0.1319261668636358   F   F   F
  0.2439096344744200  0.0149315574630435  0.2294272331681810   F   F   F
  0.6976537942059124  0.0566164128909890  0.2220366322545431   F   F   F
  0.7750839752786453  0.1232261712298536  0.3131353040743667   T   T   T
  0.5370126078200318  0.8711222426087387  0.3174199244036453   T   T   T
  0.7741422871075372  0.1303526627281002  0.0510236411136376   F   F   F
  0.5357933357529490  0.8795584207814997  0.0554483186181827   F   F   F
  0.1814597450678335  0.5098063442843568  0.2171239293045488   F   F   F
  0.9349898804628438  0.3002506672727421  0.2236450676863626   F   F   F
  0.8637922699629215  0.9774248099011871  0.1391290802590888   F   F   F
  0.7103683752906917  0.2901671282358720  0.2217569249545477   F   F   F
  0.4576128818555389  0.2618566628464478  0.2213986287363667   F   F   F
  0.8581290774886767  0.4368715359506439  0.1313162540363635   F   F   F
  0.1100745241357401  0.1878027748418276  0.1340892703363608   F   F   F
  0.7528583583272024  0.5916146920990570  0.0478918017818160   F   F   F
  0.3015051675749518  0.6160063720539810  0.0630200835090875   F   F   F
  0.3734188990724761  0.7330867030792589  0.1363920454954552   F   F   F
  0.3936768738036420  0.4342038804354047  0.1433610557727292   F   F   F
  0.7851920225630090  0.3678272407975959  0.3142050157081753   T   T   T
  0.7669098264074421  0.3554787377304791  0.0472348453454572   F   F   F
  0.9208175640634693  0.0708794067542158  0.2271199104590877   F   F   F
  0.4649313895279050  0.7934409722809264  0.2269696011863616   F   F   F
  0.2368418030058024  0.8043381320118073  0.2355582224818207   F   F   F
  0.4569958715132501  0.0304147897165663  0.2234290062500008   F   F   F
  0.5392349994358896  0.1170546360222216  0.4510870173972106   T   T   T
 
  0.00000000E+00  0.00000000E+00  0.00000000E+00
  0.00000000E+00  0.00000000E+00  0.00000000E+00
  0.00000000E+00  0.00000000E+00  0.00000000E+00
  0.00000000E+00  0.00000000E+00  0.00000000E+00
  0.00000000E+00  0.00000000E+00  0.00000000E+00
  0.00000000E+00  0.00000000E+00  0.00000000E+00
  0.00000000E+00  0.00000000E+00  0.00000000E+00
  0.00000000E+00  0.00000000E+00  0.00000000E+00
  0.00000000E+00  0.00000000E+00  0.00000000E+00
  0.00000000E+00  0.00000000E+00  0.00000000E+00
  0.00000000E+00  0.00000000E+00  0.00000000E+00
  0.00000000E+00  0.00000000E+00  0.00000000E+00
  0.00000000E+00  0.00000000E+00  0.00000000E+00
  0.00000000E+00  0.00000000E+00  0.00000000E+00
  0.00000000E+00  0.00000000E+00  0.00000000E+00
  0.00000000E+00  0.00000000E+00  0.00000000E+00
  0.00000000E+00  0.00000000E+00  0.00000000E+00
  0.00000000E+00  0.00000000E+00  0.00000000E+00
  0.00000000E+00  0.00000000E+00  0.00000000E+00
  0.00000000E+00  0.00000000E+00  0.00000000E+00
  0.00000000E+00  0.00000000E+00  0.00000000E+00
  0.00000000E+00  0.00000000E+00  0.00000000E+00
  0.00000000E+00  0.00000000E+00  0.00000000E+00
  0.00000000E+00  0.00000000E+00  0.00000000E+00
  0.00000000E+00  0.00000000E+00  0.00000000E+00
  0.00000000E+00  0.00000000E+00  0.00000000E+00
  0.00000000E+00  0.00000000E+00  0.00000000E+00
  0.00000000E+00  0.00000000E+00  0.00000000E+00
  0.00000000E+00  0.00000000E+00  0.00000000E+00
  0.00000000E+00  0.00000000E+00  0.00000000E+00
  0.00000000E+00  0.00000000E+00  0.00000000E+00
  0.00000000E+00  0.00000000E+00  0.00000000E+00
  0.00000000E+00  0.00000000E+00  0.00000000E+00
  0.00000000E+00  0.00000000E+00  0.00000000E+00
  0.00000000E+00  0.00000000E+00  0.00000000E+00
  0.00000000E+00  0.00000000E+00  0.00000000E+00
  0.00000000E+00  0.00000000E+00  0.00000000E+00
  0.00000000E+00  0.00000000E+00  0.00000000E+00
  0.00000000E+00  0.00000000E+00  0.00000000E+00
  0.00000000E+00  0.00000000E+00  0.00000000E+00
  0.00000000E+00  0.00000000E+00  0.00000000E+00
  0.00000000E+00  0.00000000E+00  0.00000000E+00
  0.00000000E+00  0.00000000E+00  0.00000000E+00
  0.00000000E+00  0.00000000E+00  0.00000000E+00
  0.00000000E+00  0.00000000E+00  0.00000000E+00
  0.00000000E+00  0.00000000E+00  0.00000000E+00
  0.00000000E+00  0.00000000E+00  0.00000000E+00
  0.00000000E+00  0.00000000E+00  0.00000000E+00
  0.00000000E+00  0.00000000E+00  0.00000000E+00
  0.00000000E+00  0.00000000E+00  0.00000000E+00
  0.00000000E+00  0.00000000E+00  0.00000000E+00
  0.00000000E+00  0.00000000E+00  0.00000000E+00
  0.00000000E+00  0.00000000E+00  0.00000000E+00
  0.00000000E+00  0.00000000E+00  0.00000000E+00
  0.00000000E+00  0.00000000E+00  0.00000000E+00
  0.00000000E+00  0.00000000E+00  0.00000000E+00
  0.00000000E+00  0.00000000E+00  0.00000000E+00
  0.00000000E+00  0.00000000E+00  0.00000000E+00
  0.00000000E+00  0.00000000E+00  0.00000000E+00
  0.00000000E+00  0.00000000E+00  0.00000000E+00
  0.00000000E+00  0.00000000E+00  0.00000000E+00
  0.00000000E+00  0.00000000E+00  0.00000000E+00
  0.00000000E+00  0.00000000E+00  0.00000000E+00
  0.00000000E+00  0.00000000E+00  0.00000000E+00
  0.00000000E+00  0.00000000E+00  0.00000000E+00
  0.00000000E+00  0.00000000E+00  0.00000000E+00
  0.00000000E+00  0.00000000E+00  0.00000000E+00
  0.00000000E+00  0.00000000E+00  0.00000000E+00
  0.00000000E+00  0.00000000E+00  0.00000000E+00
  0.00000000E+00  0.00000000E+00  0.00000000E+00
  0.00000000E+00  0.00000000E+00  0.00000000E+00
  0.00000000E+00  0.00000000E+00  0.00000000E+00
  0.00000000E+00  0.00000000E+00  0.00000000E+00
  0.00000000E+00  0.00000000E+00  0.00000000E+00
  0.00000000E+00  0.00000000E+00  0.00000000E+00
  0.00000000E+00  0.00000000E+00  0.00000000E+00
  0.00000000E+00  0.00000000E+00  0.00000000E+00
  0.00000000E+00  0.00000000E+00  0.00000000E+00
  0.00000000E+00  0.00000000E+00  0.00000000E+00
  0.00000000E+00  0.00000000E+00  0.00000000E+00
  0.00000000E+00  0.00000000E+00  0.00000000E+00
