11.26                                   
   1.00000000000000     
    11.2227001190000006    0.0000000000000000    0.0000000000000000
     5.6113500595000003    9.7191434021000003    0.0000000000000000
     0.0000000000000000    0.0000000000000000   22.0000000000000000
   Pt   Fe   Co   Cu   Ni   H 
    32    13    10    13    12     1
Selective dynamics
Direct
  0.7834765209432462  0.8703528311530278  0.3057414153818172   F   F   F
  0.0308472291510995  0.8717351554736155  0.2999570161136376   F   F   F
  0.2774964812405258  0.3626706595705116  0.3138592884909102   F   F   F
  0.8703508772095105  0.9595451158056747  0.4086745925772703   F   F   F
  0.1110031807536132  0.4606841587739652  0.4129688713590909   F   F   F
  0.1231572586042802  0.9492602928573461  0.4060547772818168   F   F   F
  0.8715760501001384  0.4491985424000120  0.4156486125545484   F   F   F
  0.3717932873773933  0.9516778005972739  0.4146587625999985   F   F   F
  0.8698970910179042  0.2033379943002984  0.4065994684954575   F   F   F
  0.1250362340211879  0.2061350133044755  0.4128495062136395   F   F   F
  0.6201015278824329  0.9515777957038551  0.4112267008454538   F   F   F
  0.8679277298503436  0.7032699492244490  0.4153489829863659   F   F   F
  0.3750652921776521  0.1970109403660274  0.4153624550863668   F   F   F
  0.3688299602275862  0.7055788996197236  0.4074303485727242   F   F   F
  0.6208439811528379  0.4536018767402297  0.4113842429909056   F   F   F
  0.1199729096491566  0.7030317321096078  0.4096370455863649   F   F   F
  0.6214023992482609  0.2059378961491092  0.4098474400045475   F   F   F
  0.5357414011100872  0.3726026424013398  0.3099173374909086   F   F   F
  0.5317297401596264  0.1170031689474058  0.3113040695090916   F   F   F
  0.5569226188755110  0.1086708656929360  0.0592961979909106   F   F   F
  0.0930745014782630  0.4259856488078384  0.1229365454818208   F   F   F
  0.0501368050173383  0.1252151936905292  0.3103776305545480   F   F   F
  0.0235476180177372  0.1116837216400626  0.0415554665318183   F   F   F
  0.1293428954640135  0.9475379252774658  0.1410218874318190   F   F   F
  0.3662347772042907  0.4529844276038517  0.4120130990454527   F   F   F
  0.4463733127121827  0.5590599617993064  0.2201686420090923   F   F   F
  0.6156498884217143  0.7018056456627875  0.4130553571454527   F   F   F
  0.9496412988475953  0.7566142239563121  0.2091809507181850   F   F   F
  0.7944613643234106  0.6149072584636102  0.3155416644863607   F   F   F
  0.2710649772344027  0.6174973615785149  0.3085136810409068   F   F   F
  0.1891672861307754  0.2657704220046710  0.2250055169318159   F   F   F
  0.6933157080343193  0.5494170253055657  0.2213121226772756   F   F   F
  0.0322354581927300  0.6257447831756409  0.3145101039727294   F   F   F
  0.7908976721677661  0.8607398451588253  0.0643550995272761   F   F   F
  0.0497744387680896  0.8515179213645325  0.0563143962045487   F   F   F
  0.0482691984141681  0.6404573579452517  0.0664752515863611   F   F   F
  0.6277707382687936  0.2312090485478890  0.1342846206409121   F   F   F
  0.3782172184191310  0.9483996770135477  0.1357048643863621   F   F   F
  0.0291276117545678  0.3764452416258663  0.3194801746727265   F   F   F
  0.9804591417191091  0.3557507153514052  0.0436524654181838   F   F   F
  0.8640049941009735  0.2076928001868836  0.1340350911636392   F   F   F
  0.9451399085370085  0.5266535011813929  0.2211150897863661   F   F   F
  0.2976240405980448  0.1086277419337094  0.3200606696636399   F   F   F
  0.5397326718174895  0.6167237469718643  0.3185908503090928   F   F   F
  0.2731123853233228  0.0985488070371545  0.0516987688636377   F   F   F
  0.5334473651308755  0.6203591302189508  0.0498930076045454   F   F   F
  0.2770995757786139  0.4215163844804266  0.0587340680727237   F   F   F
  0.6210554875665082  0.9270430545096389  0.1407946278545467   F   F   F
  0.7025641402416909  0.7747404709218557  0.2204396092954539   F   F   F
  0.8411225825284063  0.6704695058714734  0.1300022238272760   F   F   F
  0.6105486174653407  0.4610934769139945  0.1309991407090934   F   F   F
  0.2998519050273742  0.8816558837014909  0.3176620989000014   F   F   F
  0.2940362362996041  0.8760797686409489  0.0475515383727299   F   F   F
  0.6041934999629675  0.7158029702079318  0.1307821798045481   F   F   F
  0.2360731343730578  0.0174466072764545  0.2280154387772697   F   F   F
  0.5242744956851624  0.3792912181235550  0.0425614798636360   F   F   F
  0.3551744787353499  0.2076428621234214  0.1336254578909077   F   F   F
  0.1731039612630880  0.6910893229282635  0.1515240298045484   F   F   F
  0.6923909364538048  0.0568688020675339  0.2191301533863665   F   F   F
  0.7842683023339845  0.1248189229760612  0.3109011144636398   F   F   F
  0.5399494223653818  0.8673244595792866  0.3158202186181853   F   F   F
  0.7883185831952346  0.1103053582652507  0.0446684269954574   F   F   F
  0.5334963982674452  0.8779383385532000  0.0444767040636336   F   F   F
  0.1956673589336688  0.5076262213739966  0.2180563182363642   F   F   F
  0.9389271056883146  0.2975856390981022  0.2254350185045482   F   F   F
  0.8699442896834526  0.9728939451039409  0.1405358531681813   F   F   F
  0.7122658308791756  0.2953772504045702  0.2257043105318175   F   F   F
  0.4508133290681684  0.2778763517489082  0.2206428684818178   F   F   F
  0.8520537964486579  0.4351961425516251  0.1324833155681802   F   F   F
  0.1113962825649395  0.1869968796949024  0.1345737873590878   F   F   F
  0.7644304487144638  0.5913785966938292  0.0471152797272723   F   F   F
  0.2998235260282129  0.6241094473397055  0.0562708154227280   F   F   F
  0.3800882668218932  0.7239098677029290  0.1343728076227251   F   F   F
  0.3936821377214841  0.4392606579894220  0.1380873863636367   F   F   F
  0.7835869394604771  0.3820613271739219  0.3179295030045424   F   F   F
  0.7666413314546432  0.3542370531291965  0.0467139270818180   F   F   F
  0.9442228821784298  0.0677696185198471  0.2233989054818153   F   F   F
  0.4628237781163875  0.7941129895493049  0.2276203148272700   F   F   F
  0.2363871684906798  0.7979533000741910  0.2316199022272727   F   F   F
  0.4553361678960712  0.0262284913447104  0.2236937692727281   F   F   F
  0.8678177622558323  0.8366915606722003  0.4566017841818202   T   T   T
 
  0.00000000E+00  0.00000000E+00  0.00000000E+00
  0.00000000E+00  0.00000000E+00  0.00000000E+00
  0.00000000E+00  0.00000000E+00  0.00000000E+00
  0.00000000E+00  0.00000000E+00  0.00000000E+00
  0.00000000E+00  0.00000000E+00  0.00000000E+00
  0.00000000E+00  0.00000000E+00  0.00000000E+00
  0.00000000E+00  0.00000000E+00  0.00000000E+00
  0.00000000E+00  0.00000000E+00  0.00000000E+00
  0.00000000E+00  0.00000000E+00  0.00000000E+00
  0.00000000E+00  0.00000000E+00  0.00000000E+00
  0.00000000E+00  0.00000000E+00  0.00000000E+00
  0.00000000E+00  0.00000000E+00  0.00000000E+00
  0.00000000E+00  0.00000000E+00  0.00000000E+00
  0.00000000E+00  0.00000000E+00  0.00000000E+00
  0.00000000E+00  0.00000000E+00  0.00000000E+00
  0.00000000E+00  0.00000000E+00  0.00000000E+00
  0.00000000E+00  0.00000000E+00  0.00000000E+00
  0.00000000E+00  0.00000000E+00  0.00000000E+00
  0.00000000E+00  0.00000000E+00  0.00000000E+00
  0.00000000E+00  0.00000000E+00  0.00000000E+00
  0.00000000E+00  0.00000000E+00  0.00000000E+00
  0.00000000E+00  0.00000000E+00  0.00000000E+00
  0.00000000E+00  0.00000000E+00  0.00000000E+00
  0.00000000E+00  0.00000000E+00  0.00000000E+00
  0.00000000E+00  0.00000000E+00  0.00000000E+00
  0.00000000E+00  0.00000000E+00  0.00000000E+00
  0.00000000E+00  0.00000000E+00  0.00000000E+00
  0.00000000E+00  0.00000000E+00  0.00000000E+00
  0.00000000E+00  0.00000000E+00  0.00000000E+00
  0.00000000E+00  0.00000000E+00  0.00000000E+00
  0.00000000E+00  0.00000000E+00  0.00000000E+00
  0.00000000E+00  0.00000000E+00  0.00000000E+00
  0.00000000E+00  0.00000000E+00  0.00000000E+00
  0.00000000E+00  0.00000000E+00  0.00000000E+00
  0.00000000E+00  0.00000000E+00  0.00000000E+00
  0.00000000E+00  0.00000000E+00  0.00000000E+00
  0.00000000E+00  0.00000000E+00  0.00000000E+00
  0.00000000E+00  0.00000000E+00  0.00000000E+00
  0.00000000E+00  0.00000000E+00  0.00000000E+00
  0.00000000E+00  0.00000000E+00  0.00000000E+00
  0.00000000E+00  0.00000000E+00  0.00000000E+00
  0.00000000E+00  0.00000000E+00  0.00000000E+00
  0.00000000E+00  0.00000000E+00  0.00000000E+00
  0.00000000E+00  0.00000000E+00  0.00000000E+00
  0.00000000E+00  0.00000000E+00  0.00000000E+00
  0.00000000E+00  0.00000000E+00  0.00000000E+00
  0.00000000E+00  0.00000000E+00  0.00000000E+00
  0.00000000E+00  0.00000000E+00  0.00000000E+00
  0.00000000E+00  0.00000000E+00  0.00000000E+00
  0.00000000E+00  0.00000000E+00  0.00000000E+00
  0.00000000E+00  0.00000000E+00  0.00000000E+00
  0.00000000E+00  0.00000000E+00  0.00000000E+00
  0.00000000E+00  0.00000000E+00  0.00000000E+00
  0.00000000E+00  0.00000000E+00  0.00000000E+00
  0.00000000E+00  0.00000000E+00  0.00000000E+00
  0.00000000E+00  0.00000000E+00  0.00000000E+00
  0.00000000E+00  0.00000000E+00  0.00000000E+00
  0.00000000E+00  0.00000000E+00  0.00000000E+00
  0.00000000E+00  0.00000000E+00  0.00000000E+00
  0.00000000E+00  0.00000000E+00  0.00000000E+00
  0.00000000E+00  0.00000000E+00  0.00000000E+00
  0.00000000E+00  0.00000000E+00  0.00000000E+00
  0.00000000E+00  0.00000000E+00  0.00000000E+00
  0.00000000E+00  0.00000000E+00  0.00000000E+00
  0.00000000E+00  0.00000000E+00  0.00000000E+00
  0.00000000E+00  0.00000000E+00  0.00000000E+00
  0.00000000E+00  0.00000000E+00  0.00000000E+00
  0.00000000E+00  0.00000000E+00  0.00000000E+00
  0.00000000E+00  0.00000000E+00  0.00000000E+00
  0.00000000E+00  0.00000000E+00  0.00000000E+00
  0.00000000E+00  0.00000000E+00  0.00000000E+00
  0.00000000E+00  0.00000000E+00  0.00000000E+00
  0.00000000E+00  0.00000000E+00  0.00000000E+00
  0.00000000E+00  0.00000000E+00  0.00000000E+00
  0.00000000E+00  0.00000000E+00  0.00000000E+00
  0.00000000E+00  0.00000000E+00  0.00000000E+00
  0.00000000E+00  0.00000000E+00  0.00000000E+00
  0.00000000E+00  0.00000000E+00  0.00000000E+00
  0.00000000E+00  0.00000000E+00  0.00000000E+00
  0.00000000E+00  0.00000000E+00  0.00000000E+00
  0.00000000E+00  0.00000000E+00  0.00000000E+00
