10.66                                   
   1.00000000000000     
    10.6599998474000000    0.0000000000000000    0.0000000000000000
     5.3299999237000000    9.2318306721999992    0.0000000000000000
     0.0000000000000000    0.0000000000000000   22.0000000000000000
   Pt   Fe   Co   Cu   Ni   H 
    32    13    10    13    12     1
Selective dynamics
Direct
  0.7863961978401619  0.8792359804153236  0.3162786275090923   F   F   F
  0.0426510501868691  0.8825229844752371  0.3144772979090931   F   F   F
  0.2795679514177465  0.3807809359291738  0.3185812735090892   F   F   F
  0.8755732715451998  0.9600056914050796  0.4210961782454561   F   F   F
  0.1211602904025995  0.4630074924436798  0.4263517660409093   F   F   F
  0.1258441292485699  0.9605069196624356  0.4198086229318179   F   F   F
  0.8753874448127448  0.4606743583920760  0.4241750391909065   F   F   F
  0.3744148719475788  0.9603430453937492  0.4188173715045451   F   F   F
  0.8780235933619096  0.2091743171497953  0.4214400350000034   F   F   F
  0.1260749912208681  0.2115048681167693  0.4207389967045430   F   F   F
  0.6245942864360075  0.9598525907958759  0.4224277002181793   F   F   F
  0.8735274452786328  0.7114290166063952  0.4250482835499980   F   F   F
  0.3739124873798332  0.2095947194337882  0.4232607843090932   F   F   F
  0.3752607391767810  0.7125751511463037  0.4220843630000033   F   F   F
  0.6236391622722053  0.4655224695619182  0.4233032092090880   F   F   F
  0.1239147363676878  0.7108777610449906  0.4243883569227265   F   F   F
  0.6228588776727193  0.2089173207875135  0.4230876964590919   F   F   F
  0.5489510671640261  0.3762794980697137  0.3174112443636332   F   F   F
  0.5350495129272517  0.1257254573239948  0.3151684575227307   F   F   F
  0.5486022592113002  0.1220783678684398  0.0417194611409073   F   F   F
  0.1203770114094098  0.4596758926676330  0.1283201030954544   F   F   F
  0.0435186202134261  0.1366131915739999  0.3137849426636379   F   F   F
  0.0418426388172080  0.1305148925801163  0.0343023685500015   F   F   F
  0.1308766909586225  0.9576410281464973  0.1324593496136330   F   F   F
  0.3718458540931096  0.4627633950506507  0.4239404905636377   F   F   F
  0.4558751551300801  0.5452261912534055  0.2188032463590943   F   F   F
  0.6224232192091179  0.7121295529170837  0.4221741748227288   F   F   F
  0.9564296493772559  0.7883638660115935  0.2206511767818213   F   F   F
  0.7948877865856403  0.6227968550499696  0.3184077996454562   F   F   F
  0.2917076870145721  0.6311513144457876  0.3173347391545462   F   F   F
  0.2025131929892510  0.2794074348511941  0.2253137925545445   F   F   F
  0.7063333679779333  0.5492304050559156  0.2210386609136350   F   F   F
  0.0406130444564141  0.6307735935122309  0.3242546148863639   F   F   F
  0.7960105560665554  0.8618201000109948  0.0435832611454572   F   F   F
  0.0565437832242921  0.8651109997121225  0.0392200758363614   F   F   F
  0.0435481061810350  0.6317236463144766  0.0389093084545422   F   F   F
  0.6276815134142240  0.2235163201393817  0.1293691217272723   F   F   F
  0.3825164796165623  0.9540841432375444  0.1307328652727264   F   F   F
  0.0359112352900439  0.3836302182474967  0.3234516755818149   F   F   F
  0.0278953743126209  0.3811135671600852  0.0392268803136346   F   F   F
  0.8723854835080758  0.2152433571581582  0.1290949134499968   F   F   F
  0.9552444550800203  0.5439248033243373  0.2237842208363645   F   F   F
  0.2971279107193538  0.1163936587718979  0.3206588682136342   F   F   F
  0.5406646647508424  0.6295597871288692  0.3215385902454528   F   F   F
  0.2959387413066850  0.1156684851700760  0.0410976887409120   F   F   F
  0.5491575652165039  0.6253534475437093  0.0451299578272710   F   F   F
  0.2944436057289366  0.3818825695120651  0.0395469972636349   F   F   F
  0.6257779840731033  0.9479981115397109  0.1328387403227254   F   F   F
  0.7068439241485223  0.7932741886994350  0.2202474977409068   F   F   F
  0.8652306351059451  0.7044347069518153  0.1296516185590875   F   F   F
  0.6267408805099777  0.4597839886277342  0.1279108792227248   F   F   F
  0.2972172875714207  0.8757354126571499  0.3176452375863619   F   F   F
  0.3065683121091567  0.8685951938597540  0.0415361194227302   F   F   F
  0.6265607890783187  0.7150544964909855  0.1290314723727306   F   F   F
  0.2265526751504368  0.0272407945866320  0.2272041055727243   F   F   F
  0.5442540274210828  0.3813987627289208  0.0359396309863627   F   F   F
  0.3788308164937106  0.2041435759404919  0.1334105030954547   F   F   F
  0.1370202990309650  0.7046968196449441  0.1327566403363605   F   F   F
  0.7049041779848153  0.0509704179060577  0.2205891871227266   F   F   F
  0.7931892173467929  0.1304534156618118  0.3175140242181840   F   F   F
  0.5385424027216956  0.8735088379581697  0.3167521488181819   F   F   F
  0.7969090446290110  0.1230080278139880  0.0358981495909063   F   F   F
  0.5463967724760010  0.8699164031445790  0.0370350138545490   F   F   F
  0.2083873357522350  0.5420412512080333  0.2236482548818159   F   F   F
  0.9507538324824480  0.2976887111324231  0.2217994656909070   F   F   F
  0.8720363512232439  0.9641267701868443  0.1296642823045460   F   F   F
  0.7153090802579740  0.2895682410694533  0.2240864650500001   F   F   F
  0.4579381481312623  0.2920949059453903  0.2212212469136361   F   F   F
  0.8754952507754368  0.4570332552356646  0.1289402077090926   F   F   F
  0.1280802376379100  0.2061871464271974  0.1293457843363655   F   F   F
  0.7920109362154477  0.6217651118845851  0.0414976089772736   F   F   F
  0.2975223793196520  0.6287043760646469  0.0435603156136395   F   F   F
  0.3861497401569878  0.7125257726301442  0.1296682481727274   F   F   F
  0.3823461753116746  0.4514638794503369  0.1268844718136393   F   F   F
  0.7927659744609130  0.3798959212024045  0.3209996244227256   F   F   F
  0.7914206266351727  0.3768939204309305  0.0409385091409078   F   F   F
  0.9551301789539295  0.0535788047639869  0.2215612512181835   F   F   F
  0.4590951734103754  0.7961616266135891  0.2250284993454557   F   F   F
  0.2159269035965536  0.7972525351297435  0.2244845409590894   F   F   F
  0.4629288481069196  0.0294935816273068  0.2226247987863630   F   F   F
  0.7140707614509623  0.2830665197932233  0.4666063833590918   T   T   T
 
  0.00000000E+00  0.00000000E+00  0.00000000E+00
  0.00000000E+00  0.00000000E+00  0.00000000E+00
  0.00000000E+00  0.00000000E+00  0.00000000E+00
  0.00000000E+00  0.00000000E+00  0.00000000E+00
  0.00000000E+00  0.00000000E+00  0.00000000E+00
  0.00000000E+00  0.00000000E+00  0.00000000E+00
  0.00000000E+00  0.00000000E+00  0.00000000E+00
  0.00000000E+00  0.00000000E+00  0.00000000E+00
  0.00000000E+00  0.00000000E+00  0.00000000E+00
  0.00000000E+00  0.00000000E+00  0.00000000E+00
  0.00000000E+00  0.00000000E+00  0.00000000E+00
  0.00000000E+00  0.00000000E+00  0.00000000E+00
  0.00000000E+00  0.00000000E+00  0.00000000E+00
  0.00000000E+00  0.00000000E+00  0.00000000E+00
  0.00000000E+00  0.00000000E+00  0.00000000E+00
  0.00000000E+00  0.00000000E+00  0.00000000E+00
  0.00000000E+00  0.00000000E+00  0.00000000E+00
  0.00000000E+00  0.00000000E+00  0.00000000E+00
  0.00000000E+00  0.00000000E+00  0.00000000E+00
  0.00000000E+00  0.00000000E+00  0.00000000E+00
  0.00000000E+00  0.00000000E+00  0.00000000E+00
  0.00000000E+00  0.00000000E+00  0.00000000E+00
  0.00000000E+00  0.00000000E+00  0.00000000E+00
  0.00000000E+00  0.00000000E+00  0.00000000E+00
  0.00000000E+00  0.00000000E+00  0.00000000E+00
  0.00000000E+00  0.00000000E+00  0.00000000E+00
  0.00000000E+00  0.00000000E+00  0.00000000E+00
  0.00000000E+00  0.00000000E+00  0.00000000E+00
  0.00000000E+00  0.00000000E+00  0.00000000E+00
  0.00000000E+00  0.00000000E+00  0.00000000E+00
  0.00000000E+00  0.00000000E+00  0.00000000E+00
  0.00000000E+00  0.00000000E+00  0.00000000E+00
  0.00000000E+00  0.00000000E+00  0.00000000E+00
  0.00000000E+00  0.00000000E+00  0.00000000E+00
  0.00000000E+00  0.00000000E+00  0.00000000E+00
  0.00000000E+00  0.00000000E+00  0.00000000E+00
  0.00000000E+00  0.00000000E+00  0.00000000E+00
  0.00000000E+00  0.00000000E+00  0.00000000E+00
  0.00000000E+00  0.00000000E+00  0.00000000E+00
  0.00000000E+00  0.00000000E+00  0.00000000E+00
  0.00000000E+00  0.00000000E+00  0.00000000E+00
  0.00000000E+00  0.00000000E+00  0.00000000E+00
  0.00000000E+00  0.00000000E+00  0.00000000E+00
  0.00000000E+00  0.00000000E+00  0.00000000E+00
  0.00000000E+00  0.00000000E+00  0.00000000E+00
  0.00000000E+00  0.00000000E+00  0.00000000E+00
  0.00000000E+00  0.00000000E+00  0.00000000E+00
  0.00000000E+00  0.00000000E+00  0.00000000E+00
  0.00000000E+00  0.00000000E+00  0.00000000E+00
  0.00000000E+00  0.00000000E+00  0.00000000E+00
  0.00000000E+00  0.00000000E+00  0.00000000E+00
  0.00000000E+00  0.00000000E+00  0.00000000E+00
  0.00000000E+00  0.00000000E+00  0.00000000E+00
  0.00000000E+00  0.00000000E+00  0.00000000E+00
  0.00000000E+00  0.00000000E+00  0.00000000E+00
  0.00000000E+00  0.00000000E+00  0.00000000E+00
  0.00000000E+00  0.00000000E+00  0.00000000E+00
  0.00000000E+00  0.00000000E+00  0.00000000E+00
  0.00000000E+00  0.00000000E+00  0.00000000E+00
  0.00000000E+00  0.00000000E+00  0.00000000E+00
  0.00000000E+00  0.00000000E+00  0.00000000E+00
  0.00000000E+00  0.00000000E+00  0.00000000E+00
  0.00000000E+00  0.00000000E+00  0.00000000E+00
  0.00000000E+00  0.00000000E+00  0.00000000E+00
  0.00000000E+00  0.00000000E+00  0.00000000E+00
  0.00000000E+00  0.00000000E+00  0.00000000E+00
  0.00000000E+00  0.00000000E+00  0.00000000E+00
  0.00000000E+00  0.00000000E+00  0.00000000E+00
  0.00000000E+00  0.00000000E+00  0.00000000E+00
  0.00000000E+00  0.00000000E+00  0.00000000E+00
  0.00000000E+00  0.00000000E+00  0.00000000E+00
  0.00000000E+00  0.00000000E+00  0.00000000E+00
  0.00000000E+00  0.00000000E+00  0.00000000E+00
  0.00000000E+00  0.00000000E+00  0.00000000E+00
  0.00000000E+00  0.00000000E+00  0.00000000E+00
  0.00000000E+00  0.00000000E+00  0.00000000E+00
  0.00000000E+00  0.00000000E+00  0.00000000E+00
  0.00000000E+00  0.00000000E+00  0.00000000E+00
  0.00000000E+00  0.00000000E+00  0.00000000E+00
  0.00000000E+00  0.00000000E+00  0.00000000E+00
  0.00000000E+00  0.00000000E+00  0.00000000E+00
