11.26                                   
   1.00000000000000     
    11.2227001190000006    0.0000000000000000    0.0000000000000000
     5.6113500595000003    9.7191434021000003    0.0000000000000000
     0.0000000000000000    0.0000000000000000   22.0000000000000000
   Pt   Co   Ni   H 
    32    23    25     1
Selective dynamics
Direct
  0.7883494911056137  0.8792367022613030  0.3014895179240412   T   T   T
  0.0315531687372061  0.8802574484953112  0.2918280953243336   T   T   T
  0.2748486834365430  0.3607743460567172  0.3118662836244788   T   T   T
  0.8773462774019922  0.9643780684761927  0.3991888681366861   T   T   T
  0.1120361503971245  0.4694226859917759  0.4119027824469775   T   T   T
  0.1298434942015468  0.9505374735919958  0.3974273374547257   T   T   T
  0.8695100401248163  0.4564413399154141  0.4124534086435598   T   T   T
  0.3766921967461789  0.9484711358544513  0.4152741561567839   T   T   T
  0.8641131702649811  0.2133065221553514  0.3978299968689438   T   T   T
  0.1237201632023066  0.2063967346394399  0.4154007750644058   T   T   T
  0.6280994755376951  0.9515991617146231  0.4095118608038316   T   T   T
  0.8759614978027619  0.7143202714779597  0.4082180108455553   T   T   T
  0.3800864681339243  0.1963868604189591  0.4151788021994693   T   T   T
  0.3730443914032212  0.6986565589077722  0.3998213672959041   T   T   T
  0.6181259710530440  0.4579964894716075  0.3991530389999119   T   T   T
  0.1162545453923820  0.7119889044290860  0.4001419969028903   T   T   T
  0.6281077934170290  0.1997564986724497  0.4040278861932647   T   T   T
  0.5383744048008763  0.3466192846987465  0.3005302824213270   T   T   T
  0.5265689707221369  0.1134690799086784  0.3087578422188756   T   T   T
  0.5456924111831540  0.1264773896570333  0.0668330444500000   F   F   F
  0.1179165896219203  0.4079249947421673  0.1190886190954572   F   F   F
  0.0529406273742252  0.1476197040352368  0.3103204947031046   T   T   T
  0.0089289541086117  0.1017685166149818  0.0491765075181831   F   F   F
  0.1378320738526071  0.9269114493519552  0.1419736841636379   F   F   F
  0.3771961475714857  0.4497844594868194  0.4055398659722135   T   T   T
  0.4797971570719426  0.5539988047029567  0.2297174711863619   F   F   F
  0.6277109293174737  0.7072459931778196  0.4135400014408152   T   T   T
  0.9525234537930558  0.7589897745830285  0.2042040527636360   F   F   F
  0.7967818944024083  0.6310112188080838  0.3106372319705183   T   T   T
  0.2737025746090949  0.6059051382496518  0.3020676289028149   T   T   T
  0.1874902960314415  0.2619820637330932  0.2253988999272707   F   F   F
  0.7108920581928047  0.5610073442297292  0.2141021541772758   F   F   F
  0.0418588467966378  0.6073676578398916  0.3047959690167821   T   T   T
  0.7819683701955427  0.8836707209448420  0.0801259714954554   F   F   F
  0.0016786040756998  0.8657086972172863  0.0717220294954544   F   F   F
  0.0064947452574984  0.6568619922019678  0.0936782229045434   F   F   F
  0.6278902107001798  0.2337904024246669  0.1497297419681800   F   F   F
  0.3605011249257544  0.9423524271924038  0.1347041508181803   F   F   F
  0.0227754353578931  0.3951003140036035  0.3166742936564547   T   T   T
  0.0129609727070417  0.3213949785765138  0.0444243323545450   F   F   F
  0.8442397035971254  0.2276131851930501  0.1389197702363631   F   F   F
  0.9674460336454942  0.5204864880486255  0.2188500749409101   F   F   F
  0.3023050902335060  0.0990449036367073  0.3198830518005464   T   T   T
  0.5523345552586836  0.6475283351356038  0.3172301134822764   T   T   T
  0.2508545359252849  0.0912810139428828  0.0487872830227261   F   F   F
  0.5291378415644843  0.6116220387812774  0.0469794814590898   F   F   F
  0.3338924189020531  0.3612659424843301  0.0722196333181842   F   F   F
  0.5814733168765329  0.9365131401840756  0.1369430198363659   F   F   F
  0.6773266661753325  0.8092123915571250  0.2230530417863648   F   F   F
  0.8097944659668883  0.6790648121082299  0.1402434814090938   F   F   F
  0.6293781667954050  0.4536695041506746  0.1332572430909096   F   F   F
  0.3216329334709210  0.8722878812812870  0.3162095594232624   T   T   T
  0.2991981285917618  0.8498356801809663  0.0500064375045426   F   F   F
  0.5810344788006034  0.7261254454662236  0.1239217899045428   F   F   F
  0.2290723421035281  0.0129455240441061  0.2296757311181850   F   F   F
  0.5487186473537591  0.3606903691062442  0.0554524207318181   F   F   F
  0.3441165493717691  0.1669096226370641  0.1316441221863656   F   F   F
  0.1755439985883172  0.6842061655827791  0.1476189425363614   F   F   F
  0.6608263512248982  0.0424903716114287  0.2130448247909058   F   F   F
  0.7847929103982667  0.1170897329172690  0.2971127830279285   T   T   T
  0.5366161254096801  0.8741632243926670  0.3158966941363699   T   T   T
  0.7728439665680398  0.1227826303336741  0.0604845839136345   F   F   F
  0.5003074210799383  0.8984495284649512  0.0445551465727263   F   F   F
  0.1957150797376812  0.5052286738087446  0.2143863590590911   F   F   F
  0.9354617673556689  0.3154204577882496  0.2255271175500013   F   F   F
  0.8582446837676017  0.0019510069473725  0.1561197289090899   F   F   F
  0.7210428981411425  0.3149762791995201  0.2296972617681803   F   F   F
  0.4300228872279135  0.2657770050025050  0.2137706572090892   F   F   F
  0.8770375531629568  0.4295574328801379  0.1287836487363663   F   F   F
  0.0963481931919432  0.1806982179952712  0.1396927366863636   F   F   F
  0.7598886996324694  0.5886779948286147  0.0515561146681804   F   F   F
  0.3152737423209686  0.5915166876494311  0.0592523364318183   F   F   F
  0.3817921641394761  0.7012659040432894  0.1364658375045451   F   F   F
  0.4004265753919469  0.4537703161625402  0.1488472664727283   F   F   F
  0.7904223840019426  0.4009808113499963  0.3137776732173992   T   T   T
  0.7808992644723389  0.3514802091058655  0.0459807957863632   F   F   F
  0.9695440421590007  0.0843031522842779  0.2219682032818184   F   F   F
  0.4648689818808052  0.7946388815429231  0.2253314380545461   F   F   F
  0.2489049567848340  0.7859896227119592  0.2326762259318187   F   F   F
  0.4386220550658777  0.0277131730808478  0.2245019522090885   F   F   F
  0.2100044211830575  0.2906705984415997  0.4507025573152135   T   T   T
 
  0.00000000E+00  0.00000000E+00  0.00000000E+00
  0.00000000E+00  0.00000000E+00  0.00000000E+00
  0.00000000E+00  0.00000000E+00  0.00000000E+00
  0.00000000E+00  0.00000000E+00  0.00000000E+00
  0.00000000E+00  0.00000000E+00  0.00000000E+00
  0.00000000E+00  0.00000000E+00  0.00000000E+00
  0.00000000E+00  0.00000000E+00  0.00000000E+00
  0.00000000E+00  0.00000000E+00  0.00000000E+00
  0.00000000E+00  0.00000000E+00  0.00000000E+00
  0.00000000E+00  0.00000000E+00  0.00000000E+00
  0.00000000E+00  0.00000000E+00  0.00000000E+00
  0.00000000E+00  0.00000000E+00  0.00000000E+00
  0.00000000E+00  0.00000000E+00  0.00000000E+00
  0.00000000E+00  0.00000000E+00  0.00000000E+00
  0.00000000E+00  0.00000000E+00  0.00000000E+00
  0.00000000E+00  0.00000000E+00  0.00000000E+00
  0.00000000E+00  0.00000000E+00  0.00000000E+00
  0.00000000E+00  0.00000000E+00  0.00000000E+00
  0.00000000E+00  0.00000000E+00  0.00000000E+00
  0.00000000E+00  0.00000000E+00  0.00000000E+00
  0.00000000E+00  0.00000000E+00  0.00000000E+00
  0.00000000E+00  0.00000000E+00  0.00000000E+00
  0.00000000E+00  0.00000000E+00  0.00000000E+00
  0.00000000E+00  0.00000000E+00  0.00000000E+00
  0.00000000E+00  0.00000000E+00  0.00000000E+00
  0.00000000E+00  0.00000000E+00  0.00000000E+00
  0.00000000E+00  0.00000000E+00  0.00000000E+00
  0.00000000E+00  0.00000000E+00  0.00000000E+00
  0.00000000E+00  0.00000000E+00  0.00000000E+00
  0.00000000E+00  0.00000000E+00  0.00000000E+00
  0.00000000E+00  0.00000000E+00  0.00000000E+00
  0.00000000E+00  0.00000000E+00  0.00000000E+00
  0.00000000E+00  0.00000000E+00  0.00000000E+00
  0.00000000E+00  0.00000000E+00  0.00000000E+00
  0.00000000E+00  0.00000000E+00  0.00000000E+00
  0.00000000E+00  0.00000000E+00  0.00000000E+00
  0.00000000E+00  0.00000000E+00  0.00000000E+00
  0.00000000E+00  0.00000000E+00  0.00000000E+00
  0.00000000E+00  0.00000000E+00  0.00000000E+00
  0.00000000E+00  0.00000000E+00  0.00000000E+00
  0.00000000E+00  0.00000000E+00  0.00000000E+00
  0.00000000E+00  0.00000000E+00  0.00000000E+00
  0.00000000E+00  0.00000000E+00  0.00000000E+00
  0.00000000E+00  0.00000000E+00  0.00000000E+00
  0.00000000E+00  0.00000000E+00  0.00000000E+00
  0.00000000E+00  0.00000000E+00  0.00000000E+00
  0.00000000E+00  0.00000000E+00  0.00000000E+00
  0.00000000E+00  0.00000000E+00  0.00000000E+00
  0.00000000E+00  0.00000000E+00  0.00000000E+00
  0.00000000E+00  0.00000000E+00  0.00000000E+00
  0.00000000E+00  0.00000000E+00  0.00000000E+00
  0.00000000E+00  0.00000000E+00  0.00000000E+00
  0.00000000E+00  0.00000000E+00  0.00000000E+00
  0.00000000E+00  0.00000000E+00  0.00000000E+00
  0.00000000E+00  0.00000000E+00  0.00000000E+00
  0.00000000E+00  0.00000000E+00  0.00000000E+00
  0.00000000E+00  0.00000000E+00  0.00000000E+00
  0.00000000E+00  0.00000000E+00  0.00000000E+00
  0.00000000E+00  0.00000000E+00  0.00000000E+00
  0.00000000E+00  0.00000000E+00  0.00000000E+00
  0.00000000E+00  0.00000000E+00  0.00000000E+00
  0.00000000E+00  0.00000000E+00  0.00000000E+00
  0.00000000E+00  0.00000000E+00  0.00000000E+00
  0.00000000E+00  0.00000000E+00  0.00000000E+00
  0.00000000E+00  0.00000000E+00  0.00000000E+00
  0.00000000E+00  0.00000000E+00  0.00000000E+00
  0.00000000E+00  0.00000000E+00  0.00000000E+00
  0.00000000E+00  0.00000000E+00  0.00000000E+00
  0.00000000E+00  0.00000000E+00  0.00000000E+00
  0.00000000E+00  0.00000000E+00  0.00000000E+00
  0.00000000E+00  0.00000000E+00  0.00000000E+00
  0.00000000E+00  0.00000000E+00  0.00000000E+00
  0.00000000E+00  0.00000000E+00  0.00000000E+00
  0.00000000E+00  0.00000000E+00  0.00000000E+00
  0.00000000E+00  0.00000000E+00  0.00000000E+00
  0.00000000E+00  0.00000000E+00  0.00000000E+00
  0.00000000E+00  0.00000000E+00  0.00000000E+00
  0.00000000E+00  0.00000000E+00  0.00000000E+00
  0.00000000E+00  0.00000000E+00  0.00000000E+00
  0.00000000E+00  0.00000000E+00  0.00000000E+00
  0.00000000E+00  0.00000000E+00  0.00000000E+00
