11.06                                   
   1.00000000000000     
    11.0600004195999997    0.0000000000000000    0.0000000000000000
     5.5300002097999998    9.5782413293000008    0.0000000000000000
     0.0000000000000000    0.0000000000000000   22.0000000000000000
   Pt   Fe   Co   Cu   Ni   H 
    32    13    10    13    12     1
Selective dynamics
Direct
  0.7864257414595447  0.8811552980008229  0.3104116499485062   T   T   T
  0.0433627521716790  0.8802505123678317  0.3063678762890581   T   T   T
  0.2810803647591656  0.3764020979262021  0.3151019996647957   T   T   T
  0.8760773910854488  0.9642451521631770  0.4117473771433287   T   T   T
  0.1170882163982433  0.4684605066308034  0.4169294470163045   T   T   T
  0.1263399402978783  0.9580458743777919  0.4111321951593341   T   T   T
  0.8762810638866398  0.4578693273719069  0.4183333089238677   T   T   T
  0.3752754960802502  0.9566162832314477  0.4165979201538426   T   T   T
  0.8748588750801336  0.2106648566988980  0.4115185894104598   T   T   T
  0.1240195133688337  0.2136177887823044  0.4140435752087114   T   T   T
  0.6306825112169371  0.9572266854692573  0.4137060671655031   T   T   T
  0.8751087493322007  0.7129594505994071  0.4167332903573133   T   T   T
  0.3735953802848178  0.2113461487507825  0.4188515113533243   T   T   T
  0.3785938744217139  0.7114600331512151  0.4144684598318281   T   T   T
  0.6275447247663382  0.4614810481718709  0.4155972996914897   T   T   T
  0.1237559710702050  0.7114774460304290  0.4154324466954403   T   T   T
  0.6276286263210864  0.2101484162582292  0.4133678084671199   T   T   T
  0.5480583395911147  0.3768062491543719  0.3143973100706475   T   T   T
  0.5331606706096296  0.1261232265421312  0.3115163170352351   T   T   T
  0.5517907035671499  0.1237414160858918  0.0522380319954578   F   F   F
  0.1166403069998836  0.4478305367060003  0.1269050428999989   F   F   F
  0.0490529732618050  0.1343694403052163  0.3109618675632601   T   T   T
  0.0318634206626527  0.1321532286754916  0.0391436539772698   F   F   F
  0.1322902336844294  0.9574246671199944  0.1357499056681846   F   F   F
  0.3743886582331084  0.4596206498676693  0.4163899471271530   T   T   T
  0.4583302334576800  0.5505736616875794  0.2196229883772745   F   F   F
  0.6249547652396792  0.7089750254245470  0.4160091411051249   T   T   T
  0.9547310550067607  0.7790527017495137  0.2153140473863644   F   F   F
  0.7997304229192393  0.6237437438950765  0.3164453868662098   T   T   T
  0.2880819337471767  0.6292689997775797  0.3137859359261280   T   T   T
  0.1973038588486915  0.2737670855169014  0.2256946547136351   F   F   F
  0.7039440396782410  0.5536854017216086  0.2217252195590902   F   F   F
  0.0413820294949295  0.6334927039107705  0.3182592849686951   T   T   T
  0.7942667551087155  0.8599541229665348  0.0553496235818187   F   F   F
  0.0504003372988748  0.8628103274157084  0.0484924134499991   F   F   F
  0.0458392209568999  0.6458845459631064  0.0531647909772701   F   F   F
  0.6274855346454800  0.2338042520028765  0.1340709094590906   F   F   F
  0.3830354864116359  0.9521874920608795  0.1342572065863621   F   F   F
  0.0360645539953039  0.3842269788694460  0.3205638271243861   T   T   T
  0.0087826589867177  0.3763095084036081  0.0435932914227237   F   F   F
  0.8682239942029994  0.2198895605560978  0.1320713060818193   F   F   F
  0.9576874342144350  0.5384780366853548  0.2234689155318179   F   F   F
  0.3016627450534177  0.1129930422638876  0.3198451286808622   T   T   T
  0.5433258412374303  0.6258729756118221  0.3196864457820222   T   T   T
  0.2911501622544819  0.1122415390507356  0.0494274354681821   F   F   F
  0.5501148902293878  0.6255569737600126  0.0488264706954524   F   F   F
  0.3085145004429961  0.3835596446251230  0.0505624604727259   F   F   F
  0.6245341976642393  0.9433204780778155  0.1374917836227283   F   F   F
  0.7074861992497574  0.7893700323013846  0.2208180135954549   F   F   F
  0.8571241580711089  0.6893234213678454  0.1325387087818157   F   F   F
  0.6277723694778672  0.4599996828668367  0.1303307695227289   F   F   F
  0.2980955923199954  0.8725289633728830  0.3166317662281040   T   T   T
  0.3052197422800944  0.8770331463671681  0.0463809798954529   F   F   F
  0.6182318874293458  0.7191778517970846  0.1308751241863604   F   F   F
  0.2334164172359081  0.0220315628041732  0.2282939212136341   F   F   F
  0.5422124353392448  0.3830619451481425  0.0408535510409109   F   F   F
  0.3754399652261782  0.2045931610018457  0.1386052775909121   F   F   F
  0.1558647781371434  0.7043630098421261  0.1400214925545455   F   F   F
  0.7020978323690130  0.0565474128996044  0.2199129117681835   F   F   F
  0.7936622989497766  0.1296656494528014  0.3127911845264664   T   T   T
  0.5407668829614227  0.8713303535868316  0.3166323688074897   T   T   T
  0.7897065490966995  0.1294421438106141  0.0418056654227286   F   F   F
  0.5441043329389430  0.8775533958188859  0.0423234264090908   F   F   F
  0.2084291012041177  0.5357474079612743  0.2217233592454519   F   F   F
  0.9462833612890051  0.3039384823176903  0.2236098237454556   F   F   F
  0.8690563302489380  0.9770500116104230  0.1342576139045448   F   F   F
  0.7171106193404952  0.2969876676105727  0.2257845762136341   F   F   F
  0.4563820814942758  0.2976701910170334  0.2219475371090880   F   F   F
  0.8693529692367647  0.4543744225557163  0.1311308469772712   F   F   F
  0.1220030719522569  0.2018087212614930  0.1324010706863632   F   F   F
  0.7829019622226241  0.6202837550590488  0.0451729013090940   F   F   F
  0.2978972113281415  0.6241254916404273  0.0494225953454546   F   F   F
  0.3860904589733565  0.7174036682893004  0.1312306088954571   F   F   F
  0.3884240254738813  0.4538593918908589  0.1321607624818171   F   F   F
  0.7921131527698881  0.3858139593400176  0.3189042961381756   T   T   T
  0.7861851256519614  0.3745117542013503  0.0441340194818167   F   F   F
  0.9513544597592940  0.0659301343836702  0.2213817175772732   F   F   F
  0.4635982856892369  0.7951887142894378  0.2264081887863654   F   F   F
  0.2310835121427104  0.7963463801926807  0.2255315960954576   F   F   F
  0.4612243376662803  0.0241249826618102  0.2248505513227244   F   F   F
  0.3817065981751614  0.0853279617416075  0.4663868557569384   T   T   T
 
  0.00000000E+00  0.00000000E+00  0.00000000E+00
  0.00000000E+00  0.00000000E+00  0.00000000E+00
  0.00000000E+00  0.00000000E+00  0.00000000E+00
  0.00000000E+00  0.00000000E+00  0.00000000E+00
  0.00000000E+00  0.00000000E+00  0.00000000E+00
  0.00000000E+00  0.00000000E+00  0.00000000E+00
  0.00000000E+00  0.00000000E+00  0.00000000E+00
  0.00000000E+00  0.00000000E+00  0.00000000E+00
  0.00000000E+00  0.00000000E+00  0.00000000E+00
  0.00000000E+00  0.00000000E+00  0.00000000E+00
  0.00000000E+00  0.00000000E+00  0.00000000E+00
  0.00000000E+00  0.00000000E+00  0.00000000E+00
  0.00000000E+00  0.00000000E+00  0.00000000E+00
  0.00000000E+00  0.00000000E+00  0.00000000E+00
  0.00000000E+00  0.00000000E+00  0.00000000E+00
  0.00000000E+00  0.00000000E+00  0.00000000E+00
  0.00000000E+00  0.00000000E+00  0.00000000E+00
  0.00000000E+00  0.00000000E+00  0.00000000E+00
  0.00000000E+00  0.00000000E+00  0.00000000E+00
  0.00000000E+00  0.00000000E+00  0.00000000E+00
  0.00000000E+00  0.00000000E+00  0.00000000E+00
  0.00000000E+00  0.00000000E+00  0.00000000E+00
  0.00000000E+00  0.00000000E+00  0.00000000E+00
  0.00000000E+00  0.00000000E+00  0.00000000E+00
  0.00000000E+00  0.00000000E+00  0.00000000E+00
  0.00000000E+00  0.00000000E+00  0.00000000E+00
  0.00000000E+00  0.00000000E+00  0.00000000E+00
  0.00000000E+00  0.00000000E+00  0.00000000E+00
  0.00000000E+00  0.00000000E+00  0.00000000E+00
  0.00000000E+00  0.00000000E+00  0.00000000E+00
  0.00000000E+00  0.00000000E+00  0.00000000E+00
  0.00000000E+00  0.00000000E+00  0.00000000E+00
  0.00000000E+00  0.00000000E+00  0.00000000E+00
  0.00000000E+00  0.00000000E+00  0.00000000E+00
  0.00000000E+00  0.00000000E+00  0.00000000E+00
  0.00000000E+00  0.00000000E+00  0.00000000E+00
  0.00000000E+00  0.00000000E+00  0.00000000E+00
  0.00000000E+00  0.00000000E+00  0.00000000E+00
  0.00000000E+00  0.00000000E+00  0.00000000E+00
  0.00000000E+00  0.00000000E+00  0.00000000E+00
  0.00000000E+00  0.00000000E+00  0.00000000E+00
  0.00000000E+00  0.00000000E+00  0.00000000E+00
  0.00000000E+00  0.00000000E+00  0.00000000E+00
  0.00000000E+00  0.00000000E+00  0.00000000E+00
  0.00000000E+00  0.00000000E+00  0.00000000E+00
  0.00000000E+00  0.00000000E+00  0.00000000E+00
  0.00000000E+00  0.00000000E+00  0.00000000E+00
  0.00000000E+00  0.00000000E+00  0.00000000E+00
  0.00000000E+00  0.00000000E+00  0.00000000E+00
  0.00000000E+00  0.00000000E+00  0.00000000E+00
  0.00000000E+00  0.00000000E+00  0.00000000E+00
  0.00000000E+00  0.00000000E+00  0.00000000E+00
  0.00000000E+00  0.00000000E+00  0.00000000E+00
  0.00000000E+00  0.00000000E+00  0.00000000E+00
  0.00000000E+00  0.00000000E+00  0.00000000E+00
  0.00000000E+00  0.00000000E+00  0.00000000E+00
  0.00000000E+00  0.00000000E+00  0.00000000E+00
  0.00000000E+00  0.00000000E+00  0.00000000E+00
  0.00000000E+00  0.00000000E+00  0.00000000E+00
  0.00000000E+00  0.00000000E+00  0.00000000E+00
  0.00000000E+00  0.00000000E+00  0.00000000E+00
  0.00000000E+00  0.00000000E+00  0.00000000E+00
  0.00000000E+00  0.00000000E+00  0.00000000E+00
  0.00000000E+00  0.00000000E+00  0.00000000E+00
  0.00000000E+00  0.00000000E+00  0.00000000E+00
  0.00000000E+00  0.00000000E+00  0.00000000E+00
  0.00000000E+00  0.00000000E+00  0.00000000E+00
  0.00000000E+00  0.00000000E+00  0.00000000E+00
  0.00000000E+00  0.00000000E+00  0.00000000E+00
  0.00000000E+00  0.00000000E+00  0.00000000E+00
  0.00000000E+00  0.00000000E+00  0.00000000E+00
  0.00000000E+00  0.00000000E+00  0.00000000E+00
  0.00000000E+00  0.00000000E+00  0.00000000E+00
  0.00000000E+00  0.00000000E+00  0.00000000E+00
  0.00000000E+00  0.00000000E+00  0.00000000E+00
  0.00000000E+00  0.00000000E+00  0.00000000E+00
  0.00000000E+00  0.00000000E+00  0.00000000E+00
  0.00000000E+00  0.00000000E+00  0.00000000E+00
  0.00000000E+00  0.00000000E+00  0.00000000E+00
  0.00000000E+00  0.00000000E+00  0.00000000E+00
  0.00000000E+00  0.00000000E+00  0.00000000E+00
