PtM\(2)                                 
   1.00000000000000     
    10.5600004195999997    0.0000000000000000    0.0000000000000000
     5.2800002097999998    9.1452286273999999    0.0000000000000000
     0.0000000000000000    0.0000000000000000   22.0000000000000000
   Ni   Pt   H 
    64    16     2
Selective dynamics
Direct
  0.7860748044441165  0.8684261040410398  0.3112142825277956   T   T   T
  0.0359771631791898  0.8684402229276028  0.3112191934458548   T   T   T
  0.0360638410762199  0.6185004528641000  0.3112749214829914   T   T   T
  0.7874164227977971  0.8671974162722194  0.0507952848136384   F   F   F
  0.0371812071091995  0.8676186467801656  0.0508907119909097   F   F   F
  0.0374684841738073  0.6171956253437827  0.0509625431272696   F   F   F
  0.6195540567074858  0.2015927253995997  0.1375472916636369   F   F   F
  0.3695075232167966  0.9518242491084408  0.1375177793318159   F   F   F
  0.0365250867987556  0.3679971185930359  0.3113240995247761   T   T   T
  0.0370441529486243  0.3679087439453710  0.0510122538363618   F   F   F
  0.8696832728241688  0.2017788834137235  0.1375957440090900   F   F   F
  0.9527813306797637  0.5350180629355152  0.2253724315515010   T   T   T
  0.2862506488284922  0.1183617554887298  0.3113075422430120   T   T   T
  0.5362377007211930  0.6185479854130042  0.3111095131759247   T   T   T
  0.2861490503144232  0.3679787114764796  0.3112694494121139   T   T   T
  0.2865437969577087  0.1185517643978500  0.0509036111818162   F   F   F
  0.5363140996786200  0.6178282872416645  0.0507770374954575   F   F   F
  0.2861704337189792  0.3683748117358761  0.0510002003863619   F   F   F
  0.6196234901564495  0.9517335769848856  0.1373589130318180   F   F   F
  0.7026101491814220  0.7851079801844679  0.2251070945290387   T   T   T
  0.8696404260012258  0.7014772441204471  0.1376145676590923   F   F   F
  0.6196299646022467  0.4516165522451487  0.1375203790909083   F   F   F
  0.2862220114997850  0.8684458986760494  0.3112261903038675   T   T   T
  0.2865937880566349  0.8680734555957201  0.0508346510318205   F   F   F
  0.6194335686725978  0.7016555716469099  0.1373394372999996   F   F   F
  0.2029677756131129  0.0350673192808925  0.2252949570190380   T   T   T
  0.5361933456546246  0.3683842538417005  0.3111211953983188   T   T   T
  0.5363670832523084  0.3680933396912849  0.0508732332090887   F   F   F
  0.5363155012345985  0.1181086287171041  0.3112292449799557   T   T   T
  0.5357740562855895  0.1186998764413190  0.0508076041818200   F   F   F
  0.8695889210879457  0.4517664038733358  0.1377370143909076   F   F   F
  0.1194625732134043  0.4516968078549155  0.1379299702136336   F   F   F
  0.0362440784148061  0.1182475204690568  0.3112637321737673   T   T   T
  0.0372294765921879  0.1183068973757955  0.0509084329409077   F   F   F
  0.1194236500933172  0.9519185222901285  0.1376218898500028   F   F   F
  0.4528536439443784  0.5352275608940761  0.2251461817634277   T   T   T
  0.3693977441760410  0.2019043691557201  0.1377741168545441   F   F   F
  0.1196225089457670  0.2018141881625866  0.1378220913363606   F   F   F
  0.9526396543593812  0.7851309845539207  0.2252012023263922   T   T   T
  0.7861645339835946  0.6185239652673494  0.3112078423377309   T   T   T
  0.2863280156526969  0.6181847831774940  0.3112256355935574   T   T   T
  0.7873265514095209  0.6175143423293008  0.0508263513318212   F   F   F
  0.2865996923037599  0.6174998734400674  0.0509254706590880   F   F   F
  0.3692545354116845  0.7017889581208507  0.1375475984363632   F   F   F
  0.3695484132066582  0.4516338335080263  0.1377474529818201   F   F   F
  0.2029608823220571  0.2849730925004750  0.2253030894540551   T   T   T
  0.7863391730669268  0.3682918270377313  0.3111967875451034   T   T   T
  0.7871940568885378  0.3681532496423969  0.0508772485772724   F   F   F
  0.9528454641972580  0.0351631979150676  0.2251830937841690   T   T   T
  0.4528360326214730  0.7850807395559647  0.2251244808546106   T   T   T
  0.7027629872682425  0.5351707167515803  0.2251702027300571   T   T   T
  0.2029130402356805  0.7850996167846555  0.2252615398729900   T   T   T
  0.4528305550754626  0.0349675152751820  0.2252004435062326   T   T   T
  0.1194697833192677  0.7016886593380178  0.1377196208045461   F   F   F
  0.7026459223272417  0.0350792498533844  0.2251135579750853   T   T   T
  0.7861716611485196  0.1181407294529015  0.3111734087800910   T   T   T
  0.5362698893720108  0.8683889331007775  0.3112060906561284   T   T   T
  0.7868336547289516  0.1183080422132221  0.0508386848136340   F   F   F
  0.5365155299928688  0.8682561142222056  0.0507168413227248   F   F   F
  0.2029194842986936  0.5350474281108186  0.2253659777452000   T   T   T
  0.9528443475230163  0.2851192916605110  0.2253313028936414   T   T   T
  0.8694806842594929  0.9517801275761713  0.1375034099181818   F   F   F
  0.7029096491395781  0.2851628957770747  0.2251736580090733   T   T   T
  0.4529083982864363  0.2850542595855576  0.2252679912156667   T   T   T
  0.8695566650030918  0.9514921602637620  0.4085482553356271   T   T   T
  0.1196443918287013  0.4514108106612651  0.4085970728437153   T   T   T
  0.1195604291360836  0.9515227833706658  0.4085433075618389   T   T   T
  0.8697340785576559  0.4514690806201294  0.4084618522748895   T   T   T
  0.3696170760856731  0.9515447259655662  0.4085581436935335   T   T   T
  0.8696855819010719  0.2013647638946210  0.4085196822218442   T   T   T
  0.1197196140926106  0.2014107862320573  0.4086335422884564   T   T   T
  0.6197054189863868  0.9514766012987484  0.4086118843984705   T   T   T
  0.8696118005120933  0.7015677281852239  0.4085872442868179   T   T   T
  0.3695793055465409  0.2014191952574735  0.4086250099422149   T   T   T
  0.3696500265263757  0.7014108771113912  0.4082154989743532   T   T   T
  0.6196618541882623  0.4514342258667660  0.4081164879067067   T   T   T
  0.1195889908104655  0.7015206675542851  0.4085100754438160   T   T   T
  0.6196901723514382  0.2013863236024210  0.4084492601129360   T   T   T
  0.3696063941350110  0.4514258455208065  0.4083668403919388   T   T   T
  0.6197182363920293  0.7014804097879079  0.4083657919725991   T   T   T
  0.4730477290224946  0.5543478785777619  0.5480781345213384   T   T   T
  0.5153288478596667  0.5943570901561795  0.5492629284537044   T   T   T
 
  0.00000000E+00  0.00000000E+00  0.00000000E+00
  0.00000000E+00  0.00000000E+00  0.00000000E+00
  0.00000000E+00  0.00000000E+00  0.00000000E+00
  0.00000000E+00  0.00000000E+00  0.00000000E+00
  0.00000000E+00  0.00000000E+00  0.00000000E+00
  0.00000000E+00  0.00000000E+00  0.00000000E+00
  0.00000000E+00  0.00000000E+00  0.00000000E+00
  0.00000000E+00  0.00000000E+00  0.00000000E+00
  0.00000000E+00  0.00000000E+00  0.00000000E+00
  0.00000000E+00  0.00000000E+00  0.00000000E+00
  0.00000000E+00  0.00000000E+00  0.00000000E+00
  0.00000000E+00  0.00000000E+00  0.00000000E+00
  0.00000000E+00  0.00000000E+00  0.00000000E+00
  0.00000000E+00  0.00000000E+00  0.00000000E+00
  0.00000000E+00  0.00000000E+00  0.00000000E+00
  0.00000000E+00  0.00000000E+00  0.00000000E+00
  0.00000000E+00  0.00000000E+00  0.00000000E+00
  0.00000000E+00  0.00000000E+00  0.00000000E+00
  0.00000000E+00  0.00000000E+00  0.00000000E+00
  0.00000000E+00  0.00000000E+00  0.00000000E+00
  0.00000000E+00  0.00000000E+00  0.00000000E+00
  0.00000000E+00  0.00000000E+00  0.00000000E+00
  0.00000000E+00  0.00000000E+00  0.00000000E+00
  0.00000000E+00  0.00000000E+00  0.00000000E+00
  0.00000000E+00  0.00000000E+00  0.00000000E+00
  0.00000000E+00  0.00000000E+00  0.00000000E+00
  0.00000000E+00  0.00000000E+00  0.00000000E+00
  0.00000000E+00  0.00000000E+00  0.00000000E+00
  0.00000000E+00  0.00000000E+00  0.00000000E+00
  0.00000000E+00  0.00000000E+00  0.00000000E+00
  0.00000000E+00  0.00000000E+00  0.00000000E+00
  0.00000000E+00  0.00000000E+00  0.00000000E+00
  0.00000000E+00  0.00000000E+00  0.00000000E+00
  0.00000000E+00  0.00000000E+00  0.00000000E+00
  0.00000000E+00  0.00000000E+00  0.00000000E+00
  0.00000000E+00  0.00000000E+00  0.00000000E+00
  0.00000000E+00  0.00000000E+00  0.00000000E+00
  0.00000000E+00  0.00000000E+00  0.00000000E+00
  0.00000000E+00  0.00000000E+00  0.00000000E+00
  0.00000000E+00  0.00000000E+00  0.00000000E+00
  0.00000000E+00  0.00000000E+00  0.00000000E+00
  0.00000000E+00  0.00000000E+00  0.00000000E+00
  0.00000000E+00  0.00000000E+00  0.00000000E+00
  0.00000000E+00  0.00000000E+00  0.00000000E+00
  0.00000000E+00  0.00000000E+00  0.00000000E+00
  0.00000000E+00  0.00000000E+00  0.00000000E+00
  0.00000000E+00  0.00000000E+00  0.00000000E+00
  0.00000000E+00  0.00000000E+00  0.00000000E+00
  0.00000000E+00  0.00000000E+00  0.00000000E+00
  0.00000000E+00  0.00000000E+00  0.00000000E+00
  0.00000000E+00  0.00000000E+00  0.00000000E+00
  0.00000000E+00  0.00000000E+00  0.00000000E+00
  0.00000000E+00  0.00000000E+00  0.00000000E+00
  0.00000000E+00  0.00000000E+00  0.00000000E+00
  0.00000000E+00  0.00000000E+00  0.00000000E+00
  0.00000000E+00  0.00000000E+00  0.00000000E+00
  0.00000000E+00  0.00000000E+00  0.00000000E+00
  0.00000000E+00  0.00000000E+00  0.00000000E+00
  0.00000000E+00  0.00000000E+00  0.00000000E+00
  0.00000000E+00  0.00000000E+00  0.00000000E+00
  0.00000000E+00  0.00000000E+00  0.00000000E+00
  0.00000000E+00  0.00000000E+00  0.00000000E+00
  0.00000000E+00  0.00000000E+00  0.00000000E+00
  0.00000000E+00  0.00000000E+00  0.00000000E+00
  0.00000000E+00  0.00000000E+00  0.00000000E+00
  0.00000000E+00  0.00000000E+00  0.00000000E+00
  0.00000000E+00  0.00000000E+00  0.00000000E+00
  0.00000000E+00  0.00000000E+00  0.00000000E+00
  0.00000000E+00  0.00000000E+00  0.00000000E+00
  0.00000000E+00  0.00000000E+00  0.00000000E+00
  0.00000000E+00  0.00000000E+00  0.00000000E+00
  0.00000000E+00  0.00000000E+00  0.00000000E+00
  0.00000000E+00  0.00000000E+00  0.00000000E+00
  0.00000000E+00  0.00000000E+00  0.00000000E+00
  0.00000000E+00  0.00000000E+00  0.00000000E+00
  0.00000000E+00  0.00000000E+00  0.00000000E+00
  0.00000000E+00  0.00000000E+00  0.00000000E+00
  0.00000000E+00  0.00000000E+00  0.00000000E+00
  0.00000000E+00  0.00000000E+00  0.00000000E+00
  0.00000000E+00  0.00000000E+00  0.00000000E+00
  0.00000000E+00  0.00000000E+00  0.00000000E+00
  0.00000000E+00  0.00000000E+00  0.00000000E+00
