Pt111                                   
   1.00000000000000     
    11.2227001190000006    0.0000000000000000    0.0000000000000000
     5.6113500595000003    9.7191434021000003    0.0000000000000000
     0.0000000000000000    0.0000000000000000   22.0000000000000000
   Pt   H 
    80     2
Direct
  0.7868810365564731  0.8672837475444357  0.3266771741893020
  0.0370233277799952  0.8674254733769705  0.3264729337411809
  0.0370057780618364  0.6172419395583383  0.3265561636343097
  0.7869408154530049  0.8675883244589608  0.0229753452306294
  0.0370934646263742  0.8674186374676581  0.0229237539874075
  0.0367158827585003  0.6178388867484714  0.0230235689280931
  0.6202741319837360  0.2006108514230501  0.1260979522646996
  0.3705515615413212  0.9501291730934657  0.1262276750086415
  0.0371304156223111  0.3672340751768892  0.3265141927012220
  0.0364892834658067  0.3677684776484145  0.0229481360571007
  0.8701636267797058  0.2008696893276944  0.1258893657768444
  0.9539594399500586  0.5337963740806918  0.2261831392660626
  0.2871899349351095  0.1171080182175150  0.3268554018075229
  0.5365868699121942  0.6175176069341947  0.3285403264251184
  0.2872733795483338  0.3673952159657056  0.3268135695814986
  0.2873466760524130  0.1170821532448409  0.0230240687222284
  0.5370468911089369  0.6174686911629035  0.0232520343389972
  0.2872189277475831  0.3675101684907749  0.0230827607162133
  0.6202529051649430  0.9506591452727241  0.1260651620757327
  0.7034299566676465  0.7838516214472272  0.2265613074838809
  0.8701146405655429  0.7008784398604646  0.1260483773584122
  0.6200779422732282  0.4508662441046265  0.1262442180995789
  0.2873218320816763  0.8670185488966820  0.3278424246258982
  0.2871712394993458  0.8673064786881404  0.0230808745058387
  0.6200595877413621  0.7008114507291638  0.1263524851781988
  0.2037282743251596  0.0342111511831133  0.2262504319919200
  0.8699209262592671  0.9507271919376046  0.4298813328202105
  0.1194977861543643  0.4508699886486623  0.4295266519239481
  0.1158184671490332  0.9532748032925673  0.4295564827337276
  0.8718454618770156  0.4498358953215862  0.4296304231935859
  0.3669279705899417  0.9578001226000313  0.4313963163621961
  0.8710817842384019  0.1998599828730304  0.4296019692991513
  0.1192176817620753  0.2015759975445459  0.4295735191726718
  0.6217845936214840  0.9519055652336934  0.4298633826484805
  0.8710281691598432  0.7006947011300597  0.4298757315328547
  0.3706166047390795  0.2008313274544556  0.4297421235553915
  0.3634236768145826  0.7046101309683250  0.4331468652089024
  0.6271325347587584  0.4449260592205488  0.4311912653377157
  0.1158263479402645  0.7023207040535121  0.4295872263711918
  0.6215193211936079  0.1979066064284540  0.4297006113823239
  0.5368172218024225  0.3678232905079842  0.3275213719001734
  0.5369505758923460  0.3676245272742737  0.0230698552175347
  0.5370788830408320  0.1171334635833544  0.3266303052615591
  0.5371909904529985  0.1173730424984205  0.0229309503613515
  0.8698978732605671  0.4509177435762249  0.1259782911693201
  0.1204644203651406  0.4508838613637278  0.1255117614450710
  0.0370307195033054  0.1173631029021005  0.3264608329360483
  0.0367172703642517  0.1173588025216975  0.0228241057281458
  0.1205022738750993  0.9505268735044771  0.1260248657283873
  0.3674215945037214  0.4476770926556198  0.4312828858214504
  0.4536030269459210  0.5342652278887136  0.2270662155246430
  0.6268414400447561  0.6996836722851408  0.4313462362613035
  0.3706809633547141  0.2004390765797859  0.1260296774501934
  0.1204793583926296  0.2005051585008078  0.1254529474431053
  0.9536803806958055  0.7838777424947618  0.2263322150656849
  0.7866147557131716  0.6173326509168412  0.3268689209241789
  0.2875612749521243  0.6174495619034154  0.3278636967323249
  0.7866310404237034  0.6178446831999159  0.0230314366180508
  0.2871297991084628  0.6175226871597660  0.0231352003010936
  0.3706325202382883  0.7005987024890171  0.1264344330463993
  0.3705492197869266  0.4509198252343873  0.1262913201975042
  0.2035746603645311  0.2840943704164005  0.2260076386156352
  0.7867536186060563  0.3675805929290967  0.3267008715849729
  0.7865822281292165  0.3676826774566033  0.0229238341113667
  0.9535830121943381  0.0342452932947065  0.2262303212602800
  0.4535224427773282  0.7838751284429540  0.2270885787201291
  0.7034591295031167  0.5340305494121994  0.2265401853549279
  0.2043393692631289  0.7838028559237015  0.2266485800782936
  0.4535862546873042  0.0336862143234478  0.2265755550907449
  0.1204200718613479  0.7009630398020342  0.1261246463402987
  0.7037469150646646  0.0338720200259111  0.2263215762958157
  0.7868256470951407  0.1175895282046607  0.3266473889105070
  0.5368295753512392  0.8669067928188618  0.3277302959528064
  0.7868385476145767  0.1175863143679793  0.0229274035464742
  0.5372058909029028  0.8673858085145534  0.0230407921460625
  0.2037654732608600  0.5337836365211613  0.2263292165132721
  0.9541028501556150  0.2838083643391106  0.2259861198907605
  0.8703736579466277  0.9506860236076938  0.1259712821219907
  0.7035269856606944  0.2843796920755587  0.2264394970933203
  0.4536734206274651  0.2840813049527928  0.2264736709681190
  0.4564427853492634  0.5327131572235859  0.4688348823117646
  0.4539061686252144  0.7874564601152834  0.4692434387200563
 
  0.00000000E+00  0.00000000E+00  0.00000000E+00
  0.00000000E+00  0.00000000E+00  0.00000000E+00
  0.00000000E+00  0.00000000E+00  0.00000000E+00
  0.00000000E+00  0.00000000E+00  0.00000000E+00
  0.00000000E+00  0.00000000E+00  0.00000000E+00
  0.00000000E+00  0.00000000E+00  0.00000000E+00
  0.00000000E+00  0.00000000E+00  0.00000000E+00
  0.00000000E+00  0.00000000E+00  0.00000000E+00
  0.00000000E+00  0.00000000E+00  0.00000000E+00
  0.00000000E+00  0.00000000E+00  0.00000000E+00
  0.00000000E+00  0.00000000E+00  0.00000000E+00
  0.00000000E+00  0.00000000E+00  0.00000000E+00
  0.00000000E+00  0.00000000E+00  0.00000000E+00
  0.00000000E+00  0.00000000E+00  0.00000000E+00
  0.00000000E+00  0.00000000E+00  0.00000000E+00
  0.00000000E+00  0.00000000E+00  0.00000000E+00
  0.00000000E+00  0.00000000E+00  0.00000000E+00
  0.00000000E+00  0.00000000E+00  0.00000000E+00
  0.00000000E+00  0.00000000E+00  0.00000000E+00
  0.00000000E+00  0.00000000E+00  0.00000000E+00
  0.00000000E+00  0.00000000E+00  0.00000000E+00
  0.00000000E+00  0.00000000E+00  0.00000000E+00
  0.00000000E+00  0.00000000E+00  0.00000000E+00
  0.00000000E+00  0.00000000E+00  0.00000000E+00
  0.00000000E+00  0.00000000E+00  0.00000000E+00
  0.00000000E+00  0.00000000E+00  0.00000000E+00
  0.00000000E+00  0.00000000E+00  0.00000000E+00
  0.00000000E+00  0.00000000E+00  0.00000000E+00
  0.00000000E+00  0.00000000E+00  0.00000000E+00
  0.00000000E+00  0.00000000E+00  0.00000000E+00
  0.00000000E+00  0.00000000E+00  0.00000000E+00
  0.00000000E+00  0.00000000E+00  0.00000000E+00
  0.00000000E+00  0.00000000E+00  0.00000000E+00
  0.00000000E+00  0.00000000E+00  0.00000000E+00
  0.00000000E+00  0.00000000E+00  0.00000000E+00
  0.00000000E+00  0.00000000E+00  0.00000000E+00
  0.00000000E+00  0.00000000E+00  0.00000000E+00
  0.00000000E+00  0.00000000E+00  0.00000000E+00
  0.00000000E+00  0.00000000E+00  0.00000000E+00
  0.00000000E+00  0.00000000E+00  0.00000000E+00
  0.00000000E+00  0.00000000E+00  0.00000000E+00
  0.00000000E+00  0.00000000E+00  0.00000000E+00
  0.00000000E+00  0.00000000E+00  0.00000000E+00
  0.00000000E+00  0.00000000E+00  0.00000000E+00
  0.00000000E+00  0.00000000E+00  0.00000000E+00
  0.00000000E+00  0.00000000E+00  0.00000000E+00
  0.00000000E+00  0.00000000E+00  0.00000000E+00
  0.00000000E+00  0.00000000E+00  0.00000000E+00
  0.00000000E+00  0.00000000E+00  0.00000000E+00
  0.00000000E+00  0.00000000E+00  0.00000000E+00
  0.00000000E+00  0.00000000E+00  0.00000000E+00
  0.00000000E+00  0.00000000E+00  0.00000000E+00
  0.00000000E+00  0.00000000E+00  0.00000000E+00
  0.00000000E+00  0.00000000E+00  0.00000000E+00
  0.00000000E+00  0.00000000E+00  0.00000000E+00
  0.00000000E+00  0.00000000E+00  0.00000000E+00
  0.00000000E+00  0.00000000E+00  0.00000000E+00
  0.00000000E+00  0.00000000E+00  0.00000000E+00
  0.00000000E+00  0.00000000E+00  0.00000000E+00
  0.00000000E+00  0.00000000E+00  0.00000000E+00
  0.00000000E+00  0.00000000E+00  0.00000000E+00
  0.00000000E+00  0.00000000E+00  0.00000000E+00
  0.00000000E+00  0.00000000E+00  0.00000000E+00
  0.00000000E+00  0.00000000E+00  0.00000000E+00
  0.00000000E+00  0.00000000E+00  0.00000000E+00
  0.00000000E+00  0.00000000E+00  0.00000000E+00
  0.00000000E+00  0.00000000E+00  0.00000000E+00
  0.00000000E+00  0.00000000E+00  0.00000000E+00
  0.00000000E+00  0.00000000E+00  0.00000000E+00
  0.00000000E+00  0.00000000E+00  0.00000000E+00
  0.00000000E+00  0.00000000E+00  0.00000000E+00
  0.00000000E+00  0.00000000E+00  0.00000000E+00
  0.00000000E+00  0.00000000E+00  0.00000000E+00
  0.00000000E+00  0.00000000E+00  0.00000000E+00
  0.00000000E+00  0.00000000E+00  0.00000000E+00
  0.00000000E+00  0.00000000E+00  0.00000000E+00
  0.00000000E+00  0.00000000E+00  0.00000000E+00
  0.00000000E+00  0.00000000E+00  0.00000000E+00
  0.00000000E+00  0.00000000E+00  0.00000000E+00
  0.00000000E+00  0.00000000E+00  0.00000000E+00
  0.00000000E+00  0.00000000E+00  0.00000000E+00
  0.00000000E+00  0.00000000E+00  0.00000000E+00
