10.46                                   
   1.00000000000000     
    10.4600000381000005    0.0000000000000000    0.0000000000000000
     5.2300000191000002    9.0586257565999997    0.0000000000000000
     0.0000000000000000    0.0000000000000000   22.0000000000000000
   Pt   Fe   Co   Cu   Ni   H 
    32    13    10    13    12     1
Selective dynamics
Direct
  0.7879340183833108  0.8769531994532542  0.3183319299999994   F   F   F
  0.0422075917758136  0.8826992620568532  0.3164166857181812   F   F   F
  0.2798829278722863  0.3798017536593008  0.3205118308000010   F   F   F
  0.8752069785000671  0.9609026279905706  0.4262677957954537   F   F   F
  0.1242769298771975  0.4627538502124153  0.4295838852636393   F   F   F
  0.1259519386957848  0.9589148875005833  0.4219771275772715   F   F   F
  0.8731585888261293  0.4634046822103812  0.4340455731909074   F   F   F
  0.3751971714455635  0.9597793172949522  0.4211626581272725   F   F   F
  0.8735600186839321  0.2093083673777514  0.4254336793454527   F   F   F
  0.1289579483940528  0.2086970034414577  0.4266616305909068   F   F   F
  0.6251373940086822  0.9605390130793765  0.4251584199772722   F   F   F
  0.8746730667242204  0.7109140248682806  0.4290457706909123   F   F   F
  0.3756074503769824  0.2089621360525769  0.4270170948272707   F   F   F
  0.3759381755194440  0.7116487187477745  0.4261334166863620   F   F   F
  0.6243265279678809  0.4621345467384970  0.4224858787590904   F   F   F
  0.1251293811047773  0.7106770319890430  0.4292576743818159   F   F   F
  0.6249749354080620  0.2104801762906305  0.4235124353227278   F   F   F
  0.5484999213817758  0.3749712964601954  0.3173843369818172   F   F   F
  0.5355873686734327  0.1237007579746390  0.3156743027590920   F   F   F
  0.5463555366722659  0.1234644042320809  0.0380197407818201   F   F   F
  0.1212406355885420  0.4603947908281114  0.1271502081727292   F   F   F
  0.0423182636113779  0.1376330551785543  0.3147008707409071   F   F   F
  0.0428389108519767  0.1298145715251806  0.0317328682500033   F   F   F
  0.1301938677345404  0.9582784145570145  0.1312468517272762   F   F   F
  0.3753709542058203  0.4605823370570477  0.4295852579045487   F   F   F
  0.4540328858898093  0.5454509107410743  0.2187083565727264   F   F   F
  0.6228084774528782  0.7117517562752198  0.4252032491772724   F   F   F
  0.9563613465427778  0.7904679018981327  0.2212711332454518   F   F   F
  0.7951753423616879  0.6193467469734344  0.3204078818863607   F   F   F
  0.2920783576927022  0.6308921923434241  0.3192507622909062   F   F   F
  0.2029926352731195  0.2819160129492460  0.2253742575909072   F   F   F
  0.7072898954016935  0.5486203295548577  0.2205217376909090   F   F   F
  0.0409185863654429  0.6295686941747007  0.3269944857181812   F   F   F
  0.7977582256051079  0.8618987641708742  0.0403945815499966   F   F   F
  0.0556446370223256  0.8665462419264642  0.0360495583181830   F   F   F
  0.0467868659125017  0.6273110610690296  0.0349611334000031   F   F   F
  0.6268079290751558  0.2205144568031869  0.1279874704272714   F   F   F
  0.3824299677859813  0.9550771594351914  0.1293430731136382   F   F   F
  0.0365224013422605  0.3816016613537059  0.3271825285909102   F   F   F
  0.0322869523519600  0.3824189837598766  0.0357072738636361   F   F   F
  0.8718083387422340  0.2155041916681100  0.1275053200954517   F   F   F
  0.9551923697383700  0.5450551850541601  0.2237018674999973   F   F   F
  0.2963369217841105  0.1159681965263459  0.3217480571090903   F   F   F
  0.5402265660634953  0.6305628217876489  0.3221482184818214   F   F   F
  0.2950173595978711  0.1200886714861156  0.0375064116590877   F   F   F
  0.5475598048847914  0.6253949978198818  0.0421816458272701   F   F   F
  0.2945030729956244  0.3799106327129778  0.0369388269681821   F   F   F
  0.6254732335659057  0.9512088976103286  0.1314671777590917   F   F   F
  0.7062955093175702  0.7947981595502327  0.2196547961772737   F   F   F
  0.8663903657623848  0.7066093915334122  0.1280570884590944   F   F   F
  0.6260467991886856  0.4606603453796083  0.1263164780090875   F   F   F
  0.2980895467975131  0.8759330796195925  0.3175912867636370   F   F   F
  0.3052443792951109  0.8677867716383574  0.0391308983727257   F   F   F
  0.6272703420228964  0.7138141950492667  0.1276925297318172   F   F   F
  0.2234256011540126  0.0289588899738860  0.2271318947636374   F   F   F
  0.5432742054046216  0.3804519971132478  0.0330732290090907   F   F   F
  0.3785909415057347  0.2051562216648577  0.1314700547818148   F   F   F
  0.1350161306793751  0.7053169766114777  0.1306768704272727   F   F   F
  0.7050897259590414  0.0499878032791088  0.2204400288863653   F   F   F
  0.7932855536950072  0.1294302311193007  0.3181987000227267   F   F   F
  0.5387532264521653  0.8724944113229895  0.3169243784772746   F   F   F
  0.7961297016593818  0.1231870354603117  0.0328180932681832   F   F   F
  0.5460691330525478  0.8700680657833288  0.0347715803136381   F   F   F
  0.2070546213865541  0.5423754641392833  0.2243282066681829   F   F   F
  0.9518391764879297  0.2957259705588555  0.2207862691727271   F   F   F
  0.8717417800869072  0.9631728889829745  0.1282003082863667   F   F   F
  0.7139194298393150  0.2891101091125066  0.2228863708681814   F   F   F
  0.4574638451757664  0.2907874154068892  0.2206832389863607   F   F   F
  0.8752232243195124  0.4564829535856703  0.1268246701363651   F   F   F
  0.1275845306887575  0.2075320190957513  0.1280611435136336   F   F   F
  0.7923383526104573  0.6224713498503576  0.0390182938136334   F   F   F
  0.2981210247439137  0.6250642790022098  0.0405325909590886   F   F   F
  0.3856345194526227  0.7104295515035659  0.1282660679000003   F   F   F
  0.3824089299364672  0.4515722852905810  0.1254473441363615   F   F   F
  0.7935449255300782  0.3771279711506992  0.3211212663636331   F   F   F
  0.7908434017921309  0.3772889937317387  0.0379094772499968   F   F   F
  0.9558483290959217  0.0518719835464694  0.2213215703227291   F   F   F
  0.4578819920548582  0.7970605714602357  0.2241192740363616   F   F   F
  0.2121545357347188  0.7980517207627074  0.2244880538272724   F   F   F
  0.4623873984073086  0.0312412715575334  0.2218168949681782   F   F   F
  0.9462232816316316  0.2996054238163665  0.4758416940681791   T   T   T
 
  0.00000000E+00  0.00000000E+00  0.00000000E+00
  0.00000000E+00  0.00000000E+00  0.00000000E+00
  0.00000000E+00  0.00000000E+00  0.00000000E+00
  0.00000000E+00  0.00000000E+00  0.00000000E+00
  0.00000000E+00  0.00000000E+00  0.00000000E+00
  0.00000000E+00  0.00000000E+00  0.00000000E+00
  0.00000000E+00  0.00000000E+00  0.00000000E+00
  0.00000000E+00  0.00000000E+00  0.00000000E+00
  0.00000000E+00  0.00000000E+00  0.00000000E+00
  0.00000000E+00  0.00000000E+00  0.00000000E+00
  0.00000000E+00  0.00000000E+00  0.00000000E+00
  0.00000000E+00  0.00000000E+00  0.00000000E+00
  0.00000000E+00  0.00000000E+00  0.00000000E+00
  0.00000000E+00  0.00000000E+00  0.00000000E+00
  0.00000000E+00  0.00000000E+00  0.00000000E+00
  0.00000000E+00  0.00000000E+00  0.00000000E+00
  0.00000000E+00  0.00000000E+00  0.00000000E+00
  0.00000000E+00  0.00000000E+00  0.00000000E+00
  0.00000000E+00  0.00000000E+00  0.00000000E+00
  0.00000000E+00  0.00000000E+00  0.00000000E+00
  0.00000000E+00  0.00000000E+00  0.00000000E+00
  0.00000000E+00  0.00000000E+00  0.00000000E+00
  0.00000000E+00  0.00000000E+00  0.00000000E+00
  0.00000000E+00  0.00000000E+00  0.00000000E+00
  0.00000000E+00  0.00000000E+00  0.00000000E+00
  0.00000000E+00  0.00000000E+00  0.00000000E+00
  0.00000000E+00  0.00000000E+00  0.00000000E+00
  0.00000000E+00  0.00000000E+00  0.00000000E+00
  0.00000000E+00  0.00000000E+00  0.00000000E+00
  0.00000000E+00  0.00000000E+00  0.00000000E+00
  0.00000000E+00  0.00000000E+00  0.00000000E+00
  0.00000000E+00  0.00000000E+00  0.00000000E+00
  0.00000000E+00  0.00000000E+00  0.00000000E+00
  0.00000000E+00  0.00000000E+00  0.00000000E+00
  0.00000000E+00  0.00000000E+00  0.00000000E+00
  0.00000000E+00  0.00000000E+00  0.00000000E+00
  0.00000000E+00  0.00000000E+00  0.00000000E+00
  0.00000000E+00  0.00000000E+00  0.00000000E+00
  0.00000000E+00  0.00000000E+00  0.00000000E+00
  0.00000000E+00  0.00000000E+00  0.00000000E+00
  0.00000000E+00  0.00000000E+00  0.00000000E+00
  0.00000000E+00  0.00000000E+00  0.00000000E+00
  0.00000000E+00  0.00000000E+00  0.00000000E+00
  0.00000000E+00  0.00000000E+00  0.00000000E+00
  0.00000000E+00  0.00000000E+00  0.00000000E+00
  0.00000000E+00  0.00000000E+00  0.00000000E+00
  0.00000000E+00  0.00000000E+00  0.00000000E+00
  0.00000000E+00  0.00000000E+00  0.00000000E+00
  0.00000000E+00  0.00000000E+00  0.00000000E+00
  0.00000000E+00  0.00000000E+00  0.00000000E+00
  0.00000000E+00  0.00000000E+00  0.00000000E+00
  0.00000000E+00  0.00000000E+00  0.00000000E+00
  0.00000000E+00  0.00000000E+00  0.00000000E+00
  0.00000000E+00  0.00000000E+00  0.00000000E+00
  0.00000000E+00  0.00000000E+00  0.00000000E+00
  0.00000000E+00  0.00000000E+00  0.00000000E+00
  0.00000000E+00  0.00000000E+00  0.00000000E+00
  0.00000000E+00  0.00000000E+00  0.00000000E+00
  0.00000000E+00  0.00000000E+00  0.00000000E+00
  0.00000000E+00  0.00000000E+00  0.00000000E+00
  0.00000000E+00  0.00000000E+00  0.00000000E+00
  0.00000000E+00  0.00000000E+00  0.00000000E+00
  0.00000000E+00  0.00000000E+00  0.00000000E+00
  0.00000000E+00  0.00000000E+00  0.00000000E+00
  0.00000000E+00  0.00000000E+00  0.00000000E+00
  0.00000000E+00  0.00000000E+00  0.00000000E+00
  0.00000000E+00  0.00000000E+00  0.00000000E+00
  0.00000000E+00  0.00000000E+00  0.00000000E+00
  0.00000000E+00  0.00000000E+00  0.00000000E+00
  0.00000000E+00  0.00000000E+00  0.00000000E+00
  0.00000000E+00  0.00000000E+00  0.00000000E+00
  0.00000000E+00  0.00000000E+00  0.00000000E+00
  0.00000000E+00  0.00000000E+00  0.00000000E+00
  0.00000000E+00  0.00000000E+00  0.00000000E+00
  0.00000000E+00  0.00000000E+00  0.00000000E+00
  0.00000000E+00  0.00000000E+00  0.00000000E+00
  0.00000000E+00  0.00000000E+00  0.00000000E+00
  0.00000000E+00  0.00000000E+00  0.00000000E+00
  0.00000000E+00  0.00000000E+00  0.00000000E+00
  0.00000000E+00  0.00000000E+00  0.00000000E+00
  0.00000000E+00  0.00000000E+00  0.00000000E+00
