10.66                                   
   1.00000000000000     
    10.6599998474000000    0.0000000000000000    0.0000000000000000
     5.3299999237000000    9.2318306721999992    0.0000000000000000
     0.0000000000000000    0.0000000000000000   22.0000000000000000
   Pt   Fe   Co   Cu   Ni   H 
    32    13    10    13    12     1
Selective dynamics
Direct
  0.7863951146341432  0.8791416259871007  0.3161395532887879   T   T   T
  0.0427274613566826  0.8826593612387856  0.3142388609764730   T   T   T
  0.2770716009490249  0.3818350049373723  0.3195098002742432   T   T   T
  0.8746498404448789  0.9617812338629997  0.4215271352988106   T   T   T
  0.1250364808102293  0.4626835981198497  0.4301719546740313   T   T   T
  0.1247808273879526  0.9609400483534462  0.4195764534754131   T   T   T
  0.8719888861512383  0.4604527709822198  0.4282599925983283   T   T   T
  0.3744750651134149  0.9599679716706583  0.4188903972607206   T   T   T
  0.8729485932386681  0.2100544432772834  0.4182188674155393   T   T   T
  0.1271930670458185  0.2077897384024350  0.4231566967937151   T   T   T
  0.6247392922340886  0.9600953118810909  0.4221038475741942   T   T   T
  0.8733258941399858  0.7128680566535301  0.4241876709578680   T   T   T
  0.3770140943803489  0.2079317941258432  0.4226401210294213   T   T   T
  0.3757494582191896  0.7121813827221487  0.4219700809359210   T   T   T
  0.6258962116461840  0.4614238706195751  0.4206289353045011   T   T   T
  0.1241662202211571  0.7107156870762872  0.4236815420727808   T   T   T
  0.6251559211466761  0.2102661744395248  0.4205340746558225   T   T   T
  0.5479226288739014  0.3753173983899211  0.3163387351878891   T   T   T
  0.5339424769270317  0.1254205791265819  0.3142228014018172   T   T   T
  0.5486022592113002  0.1220783678684398  0.0417194611409073   F   F   F
  0.1203770114094098  0.4596758926676330  0.1283201030954544   F   F   F
  0.0445787795454751  0.1366097015722924  0.3138717722913371   T   T   T
  0.0418426388172080  0.1305148925801163  0.0343023685500015   F   F   F
  0.1308766909586225  0.9576410281464973  0.1324593496136330   F   F   F
  0.3748170279347769  0.4611143101521011  0.4242518749018451   T   T   T
  0.4556380680311755  0.5455841810277865  0.2186426628427688   T   T   T
  0.6224258937189251  0.7116270124951070  0.4223039753862668   T   T   T
  0.9564146825374321  0.7882160201187299  0.2206126329149199   T   T   T
  0.7955393092039469  0.6215027107835696  0.3191370075200217   T   T   T
  0.2915735216485728  0.6310151506327282  0.3173199208370270   T   T   T
  0.2017576591463935  0.2800637862924188  0.2257219573782318   T   T   T
  0.7065651988674522  0.5497164036176068  0.2211500717943982   T   T   T
  0.0399550460810723  0.6310853283591840  0.3240559496657344   T   T   T
  0.7960105560665554  0.8618201000109948  0.0435832611454572   F   F   F
  0.0565437832242921  0.8651109997121225  0.0392200758363614   F   F   F
  0.0435481061810350  0.6317236463144766  0.0389093084545422   F   F   F
  0.6276815134142240  0.2235163201393817  0.1293691217272723   F   F   F
  0.3825164796165623  0.9540841432375444  0.1307328652727264   F   F   F
  0.0357217305690501  0.3828103495808835  0.3255547567139397   T   T   T
  0.0278953743126209  0.3811135671600852  0.0392268803136346   F   F   F
  0.8723854835080758  0.2152433571581582  0.1290949134499968   F   F   F
  0.9553855395095775  0.5437689551763584  0.2241607016757684   T   T   T
  0.2977855119650364  0.1148705449908942  0.3204287136949662   T   T   T
  0.5405888625812431  0.6292204237652625  0.3213051454351475   T   T   T
  0.2959387413066850  0.1156684851700760  0.0410976887409120   F   F   F
  0.5491575652165039  0.6253534475437093  0.0451299578272710   F   F   F
  0.2944436057289366  0.3818825695120651  0.0395469972636349   F   F   F
  0.6257779840731033  0.9479981115397109  0.1328387403227254   F   F   F
  0.7071467260323198  0.7936578185151074  0.2200119216394542   T   T   T
  0.8652306351059451  0.7044347069518153  0.1296516185590875   F   F   F
  0.6267408805099777  0.4597839886277342  0.1279108792227248   F   F   F
  0.2982497301752026  0.8748084902715967  0.3175330617543461   T   T   T
  0.3065683121091567  0.8685951938597540  0.0415361194227302   F   F   F
  0.6265607890783187  0.7150544964909855  0.1290314723727306   F   F   F
  0.2255414992181220  0.0274740736765375  0.2273318076329084   T   T   T
  0.5442540274210828  0.3813987627289208  0.0359396309863627   F   F   F
  0.3788308164937106  0.2041435759404919  0.1334105030954547   F   F   F
  0.1370202990309650  0.7046968196449441  0.1327566403363605   F   F   F
  0.7045352365229900  0.0507193091898845  0.2202140484953535   T   T   T
  0.7929896473301420  0.1294912090950301  0.3159412815868003   T   T   T
  0.5393792324237766  0.8723603725708184  0.3165982160088289   T   T   T
  0.7969090446290110  0.1230080278139880  0.0358981495909063   F   F   F
  0.5463967724760010  0.8699164031445790  0.0370350138545490   F   F   F
  0.2082918334316881  0.5417508330833563  0.2238391971100101   T   T   T
  0.9510241415856807  0.2976722088128934  0.2217605260490919   T   T   T
  0.8720363512232439  0.9641267701868443  0.1296642823045460   F   F   F
  0.7151959566309470  0.2902704448483954  0.2234582686699953   T   T   T
  0.4566842190923416  0.2926837947537693  0.2208872366394251   T   T   T
  0.8754952507754368  0.4570332552356646  0.1289402077090926   F   F   F
  0.1280802376379100  0.2061871464271974  0.1293457843363655   F   F   F
  0.7920109362154477  0.6217651118845851  0.0414976089772736   F   F   F
  0.2975223793196520  0.6287043760646469  0.0435603156136395   F   F   F
  0.3861497401569878  0.7125257726301442  0.1296682481727274   F   F   F
  0.3823461753116746  0.4514638794503369  0.1268844718136393   F   F   F
  0.7930543953549365  0.3795032572656649  0.3198856261736304   T   T   T
  0.7914206266351727  0.3768939204309305  0.0409385091409078   F   F   F
  0.9553096912245582  0.0537491687817528  0.2213445090814423   T   T   T
  0.4588761483314418  0.7963161326332218  0.2247552333507204   T   T   T
  0.2158576028746199  0.7970912545131726  0.2244308903850856   T   T   T
  0.4617983236696347  0.0295045898492818  0.2226703594070307   T   T   T
  0.0336835501264677  0.3843603597417373  0.4733632743204817   T   T   T
 
  0.00000000E+00  0.00000000E+00  0.00000000E+00
  0.00000000E+00  0.00000000E+00  0.00000000E+00
  0.00000000E+00  0.00000000E+00  0.00000000E+00
  0.00000000E+00  0.00000000E+00  0.00000000E+00
  0.00000000E+00  0.00000000E+00  0.00000000E+00
  0.00000000E+00  0.00000000E+00  0.00000000E+00
  0.00000000E+00  0.00000000E+00  0.00000000E+00
  0.00000000E+00  0.00000000E+00  0.00000000E+00
  0.00000000E+00  0.00000000E+00  0.00000000E+00
  0.00000000E+00  0.00000000E+00  0.00000000E+00
  0.00000000E+00  0.00000000E+00  0.00000000E+00
  0.00000000E+00  0.00000000E+00  0.00000000E+00
  0.00000000E+00  0.00000000E+00  0.00000000E+00
  0.00000000E+00  0.00000000E+00  0.00000000E+00
  0.00000000E+00  0.00000000E+00  0.00000000E+00
  0.00000000E+00  0.00000000E+00  0.00000000E+00
  0.00000000E+00  0.00000000E+00  0.00000000E+00
  0.00000000E+00  0.00000000E+00  0.00000000E+00
  0.00000000E+00  0.00000000E+00  0.00000000E+00
  0.00000000E+00  0.00000000E+00  0.00000000E+00
  0.00000000E+00  0.00000000E+00  0.00000000E+00
  0.00000000E+00  0.00000000E+00  0.00000000E+00
  0.00000000E+00  0.00000000E+00  0.00000000E+00
  0.00000000E+00  0.00000000E+00  0.00000000E+00
  0.00000000E+00  0.00000000E+00  0.00000000E+00
  0.00000000E+00  0.00000000E+00  0.00000000E+00
  0.00000000E+00  0.00000000E+00  0.00000000E+00
  0.00000000E+00  0.00000000E+00  0.00000000E+00
  0.00000000E+00  0.00000000E+00  0.00000000E+00
  0.00000000E+00  0.00000000E+00  0.00000000E+00
  0.00000000E+00  0.00000000E+00  0.00000000E+00
  0.00000000E+00  0.00000000E+00  0.00000000E+00
  0.00000000E+00  0.00000000E+00  0.00000000E+00
  0.00000000E+00  0.00000000E+00  0.00000000E+00
  0.00000000E+00  0.00000000E+00  0.00000000E+00
  0.00000000E+00  0.00000000E+00  0.00000000E+00
  0.00000000E+00  0.00000000E+00  0.00000000E+00
  0.00000000E+00  0.00000000E+00  0.00000000E+00
  0.00000000E+00  0.00000000E+00  0.00000000E+00
  0.00000000E+00  0.00000000E+00  0.00000000E+00
  0.00000000E+00  0.00000000E+00  0.00000000E+00
  0.00000000E+00  0.00000000E+00  0.00000000E+00
  0.00000000E+00  0.00000000E+00  0.00000000E+00
  0.00000000E+00  0.00000000E+00  0.00000000E+00
  0.00000000E+00  0.00000000E+00  0.00000000E+00
  0.00000000E+00  0.00000000E+00  0.00000000E+00
  0.00000000E+00  0.00000000E+00  0.00000000E+00
  0.00000000E+00  0.00000000E+00  0.00000000E+00
  0.00000000E+00  0.00000000E+00  0.00000000E+00
  0.00000000E+00  0.00000000E+00  0.00000000E+00
  0.00000000E+00  0.00000000E+00  0.00000000E+00
  0.00000000E+00  0.00000000E+00  0.00000000E+00
  0.00000000E+00  0.00000000E+00  0.00000000E+00
  0.00000000E+00  0.00000000E+00  0.00000000E+00
  0.00000000E+00  0.00000000E+00  0.00000000E+00
  0.00000000E+00  0.00000000E+00  0.00000000E+00
  0.00000000E+00  0.00000000E+00  0.00000000E+00
  0.00000000E+00  0.00000000E+00  0.00000000E+00
  0.00000000E+00  0.00000000E+00  0.00000000E+00
  0.00000000E+00  0.00000000E+00  0.00000000E+00
  0.00000000E+00  0.00000000E+00  0.00000000E+00
  0.00000000E+00  0.00000000E+00  0.00000000E+00
  0.00000000E+00  0.00000000E+00  0.00000000E+00
  0.00000000E+00  0.00000000E+00  0.00000000E+00
  0.00000000E+00  0.00000000E+00  0.00000000E+00
  0.00000000E+00  0.00000000E+00  0.00000000E+00
  0.00000000E+00  0.00000000E+00  0.00000000E+00
  0.00000000E+00  0.00000000E+00  0.00000000E+00
  0.00000000E+00  0.00000000E+00  0.00000000E+00
  0.00000000E+00  0.00000000E+00  0.00000000E+00
  0.00000000E+00  0.00000000E+00  0.00000000E+00
  0.00000000E+00  0.00000000E+00  0.00000000E+00
  0.00000000E+00  0.00000000E+00  0.00000000E+00
  0.00000000E+00  0.00000000E+00  0.00000000E+00
  0.00000000E+00  0.00000000E+00  0.00000000E+00
  0.00000000E+00  0.00000000E+00  0.00000000E+00
  0.00000000E+00  0.00000000E+00  0.00000000E+00
  0.00000000E+00  0.00000000E+00  0.00000000E+00
  0.00000000E+00  0.00000000E+00  0.00000000E+00
  0.00000000E+00  0.00000000E+00  0.00000000E+00
  0.00000000E+00  0.00000000E+00  0.00000000E+00
