11.26-high                              
   1.00000000000000     
    11.2227001190000006    0.0000000000000000    0.0000000000000000
     5.6113500595000003    9.7191434021000003    0.0000000000000000
     0.0000000000000000    0.0000000000000000   22.0000000000000000
   Pt   Fe   Co   Cu   Ni   H 
    42    10     9    10     9     1
Selective dynamics
Direct
  0.7755545008161223  0.8704639698066399  0.3145489453004215   T   T   T
  0.0357077113641767  0.8699920623964541  0.3152346539174198   T   T   T
  0.0367180368013903  0.6153945469377506  0.3129253831701244   T   T   T
  0.0291872208356319  0.3707917991953702  0.3193777830819139   T   T   T
  0.2890413070316755  0.1070709651391692  0.3188793873170171   T   T   T
  0.2861857588096750  0.3675488560950089  0.3177263935468453   T   T   T
  0.8603830678044062  0.6885467750536591  0.1253156462500016   F   F   F
  0.8687744911288943  0.9526432092756340  0.4162169975621401   T   T   T
  0.1136933895031797  0.4588410575594780  0.4222937207869144   T   T   T
  0.1252478338263166  0.9480616887702265  0.4166300271729010   T   T   T
  0.8638780821254534  0.4516378374466566  0.4198511239907705   T   T   T
  0.3732275496069952  0.9441089412780309  0.4182028112909071   T   T   T
  0.8647806537229251  0.2040707767758350  0.4156734467189229   T   T   T
  0.1181838063583709  0.1993635881635758  0.4225669919244193   T   T   T
  0.6189419286587907  0.9456294317003422  0.4177389759685152   T   T   T
  0.8665889720920520  0.7064755350133598  0.4194980906536403   T   T   T
  0.3783248997832743  0.1931687385217881  0.4194859624870653   T   T   T
  0.3723550110139145  0.7035106566270662  0.4179019807007241   T   T   T
  0.6204729919184275  0.4564783938263567  0.4196188248394379   T   T   T
  0.1179742701801600  0.7003790882429562  0.4181522597901545   T   T   T
  0.6187961588929062  0.2058392725413467  0.4170078356665316   T   T   T
  0.5409815384487112  0.3759079288994093  0.3173516721001103   T   T   T
  0.5318413293453982  0.1210268556764726  0.3163811789541512   T   T   T
  0.5442019006228733  0.1201914845034153  0.0504434484681795   F   F   F
  0.1142405163196329  0.4386075722968457  0.1234050769590880   F   F   F
  0.0387672797958746  0.1154665368402544  0.3162093764846156   T   T   T
  0.0243253264458687  0.1323668837134377  0.0369015360272726   F   F   F
  0.1152134814866699  0.9584880216488187  0.1297927210409071   F   F   F
  0.3678104655886530  0.4537452022607841  0.4195778690109219   T   T   T
  0.4557435896217541  0.5396524899372039  0.2213525035863668   F   F   F
  0.6179448514743752  0.7005779815286455  0.4205157182527354   T   T   T
  0.9410139446931112  0.7905655189880036  0.2179142421045484   F   F   F
  0.7805344382870825  0.6223512694507054  0.3180114917917677   T   T   T
  0.2891039016543607  0.6206302284479376  0.3176024946525454   T   T   T
  0.3768126017729969  0.7090882968360077  0.1223311202272725   F   F   F
  0.1980441227920124  0.2771285427188985  0.2229871410590931   F   F   F
  0.6939540916241498  0.5484393539196333  0.2221168207409079   F   F   F
  0.2107683324880867  0.7918799648369301  0.2236131327318205   F   F   F
  0.4557418254902501  0.0164923155846566  0.2206410286909062   F   F   F
  0.6862860921415930  0.0468873908889478  0.2147227927181845   F   F   F
  0.7840752175775098  0.1216144844070797  0.3128321423336246   T   T   T
  0.9434930917077722  0.2857924509272962  0.2215890749863618   F   F   F
  0.7867857272291658  0.8821680795189693  0.0488070628545429   F   F   F
  0.0358623303006738  0.8507121037450176  0.0465431883590881   F   F   F
  0.0481229290084855  0.6302962965930092  0.0439644148227245   F   F   F
  0.6209494190243205  0.2256219229594052  0.1323573148454571   F   F   F
  0.3709421952700751  0.9443970530280268  0.1313032974227255   F   F   F
  0.9936099268667462  0.3719789771410120  0.0447934889863646   F   F   F
  0.8631642533399813  0.2122395306827443  0.1308509258409103   F   F   F
  0.9463297029474802  0.5321554723827262  0.2240115982681843   F   F   F
  0.5360688505960586  0.6194536758300935  0.3229182768265066   T   T   T
  0.2942496729187951  0.1094640347697862  0.0502411027818184   F   F   F
  0.5652370767781534  0.5964757606259212  0.0467385234636382   F   F   F
  0.3035354273760760  0.3837712234901360  0.0499963786545479   F   F   F
  0.6277578011989107  0.9236075517169979  0.1303932065727267   F   F   F
  0.6989168430191057  0.7800059105684127  0.2225661840045490   F   F   F
  0.6222664635151602  0.4485233850092314  0.1314846070363629   F   F   F
  0.2887413783952173  0.8677286782413122  0.3194677618153745   T   T   T
  0.2792035565351938  0.9034454831176575  0.0410961363181812   F   F   F
  0.6143503406269275  0.7101301790452794  0.1300746441954530   F   F   F
  0.2165096431681519  0.0224182010065732  0.2257764199409067   F   F   F
  0.5361482883496507  0.3764256073029557  0.0401335441090893   F   F   F
  0.3702343115390931  0.2105192803882190  0.1365703187000022   F   F   F
  0.1326484000424202  0.6896726429153901  0.1374850507500014   F   F   F
  0.5351607811566799  0.8579240488876471  0.3185336063266075   T   T   T
  0.7841087454784841  0.1257091519028322  0.0403582594772729   F   F   F
  0.5329206264284778  0.8661142146417120  0.0408235199181846   F   F   F
  0.2106888119822869  0.5229193255242919  0.2214641484136379   F   F   F
  0.8693192534775847  0.9736660002521731  0.1323443272500029   F   F   F
  0.7050605033612314  0.2914274399005166  0.2245332657363619   F   F   F
  0.4533111685043210  0.2946908516218798  0.2235118708227262   F   F   F
  0.8556987306866617  0.4497894098625466  0.1313302277681814   F   F   F
  0.1273694145296886  0.1919494531582799  0.1306615633954564   F   F   F
  0.7725967245697234  0.5982079950527108  0.0420667780727300   F   F   F
  0.2752698282785886  0.6127388501452984  0.0463555859136378   F   F   F
  0.3852170713906986  0.4500455704928612  0.1318572647090903   F   F   F
  0.7773901171140035  0.3803831882854247  0.3196835804657496   T   T   T
  0.7757829137447203  0.3655372166679172  0.0436342522727244   F   F   F
  0.9538253258237788  0.0428579507644642  0.2228099709181848   F   F   F
  0.4551161067616150  0.7837870906559559  0.2271676499863631   F   F   F
  0.1186089748611433  0.3271166456254136  0.4678550100501864   T   T   T
 
  0.00000000E+00  0.00000000E+00  0.00000000E+00
  0.00000000E+00  0.00000000E+00  0.00000000E+00
  0.00000000E+00  0.00000000E+00  0.00000000E+00
  0.00000000E+00  0.00000000E+00  0.00000000E+00
  0.00000000E+00  0.00000000E+00  0.00000000E+00
  0.00000000E+00  0.00000000E+00  0.00000000E+00
  0.00000000E+00  0.00000000E+00  0.00000000E+00
  0.00000000E+00  0.00000000E+00  0.00000000E+00
  0.00000000E+00  0.00000000E+00  0.00000000E+00
  0.00000000E+00  0.00000000E+00  0.00000000E+00
  0.00000000E+00  0.00000000E+00  0.00000000E+00
  0.00000000E+00  0.00000000E+00  0.00000000E+00
  0.00000000E+00  0.00000000E+00  0.00000000E+00
  0.00000000E+00  0.00000000E+00  0.00000000E+00
  0.00000000E+00  0.00000000E+00  0.00000000E+00
  0.00000000E+00  0.00000000E+00  0.00000000E+00
  0.00000000E+00  0.00000000E+00  0.00000000E+00
  0.00000000E+00  0.00000000E+00  0.00000000E+00
  0.00000000E+00  0.00000000E+00  0.00000000E+00
  0.00000000E+00  0.00000000E+00  0.00000000E+00
  0.00000000E+00  0.00000000E+00  0.00000000E+00
  0.00000000E+00  0.00000000E+00  0.00000000E+00
  0.00000000E+00  0.00000000E+00  0.00000000E+00
  0.00000000E+00  0.00000000E+00  0.00000000E+00
  0.00000000E+00  0.00000000E+00  0.00000000E+00
  0.00000000E+00  0.00000000E+00  0.00000000E+00
  0.00000000E+00  0.00000000E+00  0.00000000E+00
  0.00000000E+00  0.00000000E+00  0.00000000E+00
  0.00000000E+00  0.00000000E+00  0.00000000E+00
  0.00000000E+00  0.00000000E+00  0.00000000E+00
  0.00000000E+00  0.00000000E+00  0.00000000E+00
  0.00000000E+00  0.00000000E+00  0.00000000E+00
  0.00000000E+00  0.00000000E+00  0.00000000E+00
  0.00000000E+00  0.00000000E+00  0.00000000E+00
  0.00000000E+00  0.00000000E+00  0.00000000E+00
  0.00000000E+00  0.00000000E+00  0.00000000E+00
  0.00000000E+00  0.00000000E+00  0.00000000E+00
  0.00000000E+00  0.00000000E+00  0.00000000E+00
  0.00000000E+00  0.00000000E+00  0.00000000E+00
  0.00000000E+00  0.00000000E+00  0.00000000E+00
  0.00000000E+00  0.00000000E+00  0.00000000E+00
  0.00000000E+00  0.00000000E+00  0.00000000E+00
  0.00000000E+00  0.00000000E+00  0.00000000E+00
  0.00000000E+00  0.00000000E+00  0.00000000E+00
  0.00000000E+00  0.00000000E+00  0.00000000E+00
  0.00000000E+00  0.00000000E+00  0.00000000E+00
  0.00000000E+00  0.00000000E+00  0.00000000E+00
  0.00000000E+00  0.00000000E+00  0.00000000E+00
  0.00000000E+00  0.00000000E+00  0.00000000E+00
  0.00000000E+00  0.00000000E+00  0.00000000E+00
  0.00000000E+00  0.00000000E+00  0.00000000E+00
  0.00000000E+00  0.00000000E+00  0.00000000E+00
  0.00000000E+00  0.00000000E+00  0.00000000E+00
  0.00000000E+00  0.00000000E+00  0.00000000E+00
  0.00000000E+00  0.00000000E+00  0.00000000E+00
  0.00000000E+00  0.00000000E+00  0.00000000E+00
  0.00000000E+00  0.00000000E+00  0.00000000E+00
  0.00000000E+00  0.00000000E+00  0.00000000E+00
  0.00000000E+00  0.00000000E+00  0.00000000E+00
  0.00000000E+00  0.00000000E+00  0.00000000E+00
  0.00000000E+00  0.00000000E+00  0.00000000E+00
  0.00000000E+00  0.00000000E+00  0.00000000E+00
  0.00000000E+00  0.00000000E+00  0.00000000E+00
  0.00000000E+00  0.00000000E+00  0.00000000E+00
  0.00000000E+00  0.00000000E+00  0.00000000E+00
  0.00000000E+00  0.00000000E+00  0.00000000E+00
  0.00000000E+00  0.00000000E+00  0.00000000E+00
  0.00000000E+00  0.00000000E+00  0.00000000E+00
  0.00000000E+00  0.00000000E+00  0.00000000E+00
  0.00000000E+00  0.00000000E+00  0.00000000E+00
  0.00000000E+00  0.00000000E+00  0.00000000E+00
  0.00000000E+00  0.00000000E+00  0.00000000E+00
  0.00000000E+00  0.00000000E+00  0.00000000E+00
  0.00000000E+00  0.00000000E+00  0.00000000E+00
  0.00000000E+00  0.00000000E+00  0.00000000E+00
  0.00000000E+00  0.00000000E+00  0.00000000E+00
  0.00000000E+00  0.00000000E+00  0.00000000E+00
  0.00000000E+00  0.00000000E+00  0.00000000E+00
  0.00000000E+00  0.00000000E+00  0.00000000E+00
  0.00000000E+00  0.00000000E+00  0.00000000E+00
  0.00000000E+00  0.00000000E+00  0.00000000E+00
