10.46                                   
   1.00000000000000     
    10.4600000381000005    0.0000000000000000    0.0000000000000000
     5.2300000191000002    9.0586257565999997    0.0000000000000000
     0.0000000000000000    0.0000000000000000   22.0000000000000000
   Pt   Fe   Co   Cu   Ni   H 
    32    13    10    13    12     1
Selective dynamics
Direct
  0.7874806266516367  0.8781571615629885  0.3181845867842670   T   T   T
  0.0428231433465007  0.8815445091370263  0.3170104621761625   T   T   T
  0.2798864586122908  0.3807578683947425  0.3208422216454809   T   T   T
  0.8746508915339503  0.9621466504236136  0.4265068501224800   T   T   T
  0.1222077431556871  0.4614289618239109  0.4289186082818567   T   T   T
  0.1241017338173580  0.9633240203579343  0.4220025073715437   T   T   T
  0.8743275010548206  0.4609982722423022  0.4304287371121037   T   T   T
  0.3750687766708254  0.9606387687249727  0.4217327920828651   T   T   T
  0.8746991382515481  0.2117665801507271  0.4222225064452044   T   T   T
  0.1256741677232561  0.2111281627118836  0.4244686638998579   T   T   T
  0.6250321892709660  0.9611248842235688  0.4251880233273616   T   T   T
  0.8743154455048378  0.7109806045865209  0.4284298686478744   T   T   T
  0.3752091148591303  0.2091629734979024  0.4270652468788267   T   T   T
  0.3766322825746145  0.7142602710400531  0.4282897642255349   T   T   T
  0.6275674100175465  0.4607268865045918  0.4221789231547383   T   T   T
  0.1217175545733295  0.7138975461184929  0.4328997774244699   T   T   T
  0.6257404368963539  0.2107547969265960  0.4234628071427136   T   T   T
  0.5473181554034293  0.3759005605748762  0.3177761739024528   T   T   T
  0.5348442519031738  0.1243564329708757  0.3156733761141722   T   T   T
  0.5463555366722659  0.1234644042320809  0.0380197407818201   F   F   F
  0.1212406355885420  0.4603947908281114  0.1271502081727292   F   F   F
  0.0423697428379929  0.1371941558292441  0.3143306871953144   T   T   T
  0.0428389108519767  0.1298145715251806  0.0317328682500033   F   F   F
  0.1301938677345404  0.9582784145570145  0.1312468517272762   F   F   F
  0.3768820063303711  0.4587465233814979  0.4334882708023319   T   T   T
  0.4540328858898093  0.5454509107410743  0.2187083565727264   F   F   F
  0.6236292913183574  0.7115318205082031  0.4246099189061090   T   T   T
  0.9563613465427778  0.7904679018981327  0.2212711332454518   F   F   F
  0.7948083875864764  0.6210374967041564  0.3194277320778998   T   T   T
  0.2926086277906662  0.6311561173860183  0.3202034346508450   T   T   T
  0.2029926352731195  0.2819160129492460  0.2253742575909072   F   F   F
  0.7072898954016935  0.5486203295548577  0.2205217376909090   F   F   F
  0.0412754430081110  0.6303117370656499  0.3271584207927185   T   T   T
  0.7977582256051079  0.8618987641708742  0.0403945815499966   F   F   F
  0.0556446370223256  0.8665462419264642  0.0360495583181830   F   F   F
  0.0467868659125017  0.6273110610690296  0.0349611334000031   F   F   F
  0.6268079290751558  0.2205144568031869  0.1279874704272714   F   F   F
  0.3824299677859813  0.9550771594351914  0.1293430731136382   F   F   F
  0.0360039897409217  0.3828430951774762  0.3258177662972100   T   T   T
  0.0322869523519600  0.3824189837598766  0.0357072738636361   F   F   F
  0.8718083387422340  0.2155041916681100  0.1275053200954517   F   F   F
  0.9551923697383700  0.5450551850541601  0.2237018674999973   F   F   F
  0.2958727692822615  0.1165385330029469  0.3219165332615664   T   T   T
  0.5400422589330843  0.6310663082762183  0.3221078885873674   T   T   T
  0.2950173595978711  0.1200886714861156  0.0375064116590877   F   F   F
  0.5475598048847914  0.6253949978198818  0.0421816458272701   F   F   F
  0.2945030729956244  0.3799106327129778  0.0369388269681821   F   F   F
  0.6254732335659057  0.9512088976103286  0.1314671777590917   F   F   F
  0.7062955093175702  0.7947981595502327  0.2196547961772737   F   F   F
  0.8663903657623848  0.7066093915334122  0.1280570884590944   F   F   F
  0.6260467991886856  0.4606603453796083  0.1263164780090875   F   F   F
  0.2978445029049833  0.8759980928281433  0.3179572534334982   T   T   T
  0.3052443792951109  0.8677867716383574  0.0391308983727257   F   F   F
  0.6272703420228964  0.7138141950492667  0.1276925297318172   F   F   F
  0.2234256011540126  0.0289588899738860  0.2271318947636374   F   F   F
  0.5432742054046216  0.3804519971132478  0.0330732290090907   F   F   F
  0.3785909415057347  0.2051562216648577  0.1314700547818148   F   F   F
  0.1350161306793751  0.7053169766114777  0.1306768704272727   F   F   F
  0.7050897259590414  0.0499878032791088  0.2204400288863653   F   F   F
  0.7928014240674598  0.1295353384942879  0.3176370393196917   T   T   T
  0.5380814659701745  0.8733145912154171  0.3169514102716825   T   T   T
  0.7961297016593818  0.1231870354603117  0.0328180932681832   F   F   F
  0.5460691330525478  0.8700680657833288  0.0347715803136381   F   F   F
  0.2070546213865541  0.5423754641392833  0.2243282066681829   F   F   F
  0.9518391764879297  0.2957259705588555  0.2207862691727271   F   F   F
  0.8717417800869072  0.9631728889829745  0.1282003082863667   F   F   F
  0.7139194298393150  0.2891101091125066  0.2228863708681814   F   F   F
  0.4574638451757664  0.2907874154068892  0.2206832389863607   F   F   F
  0.8752232243195124  0.4564829535856703  0.1268246701363651   F   F   F
  0.1275845306887575  0.2075320190957513  0.1280611435136336   F   F   F
  0.7923383526104573  0.6224713498503576  0.0390182938136334   F   F   F
  0.2981210247439137  0.6250642790022098  0.0405325909590886   F   F   F
  0.3856345194526227  0.7104295515035659  0.1282660679000003   F   F   F
  0.3824089299364672  0.4515722852905810  0.1254473441363615   F   F   F
  0.7930220075834173  0.3779249979132873  0.3205287072618729   T   T   T
  0.7908434017921309  0.3772889937317387  0.0379094772499968   F   F   F
  0.9558483290959217  0.0518719835464694  0.2213215703227291   F   F   F
  0.4578819920548582  0.7970605714602357  0.2241192740363616   F   F   F
  0.2121545357347188  0.7980517207627074  0.2244880538272724   F   F   F
  0.4623873984073086  0.0312412715575334  0.2218168949681782   F   F   F
  0.2936395126432523  0.6196733164717939  0.4791302844696236   T   T   T
 
  0.00000000E+00  0.00000000E+00  0.00000000E+00
  0.00000000E+00  0.00000000E+00  0.00000000E+00
  0.00000000E+00  0.00000000E+00  0.00000000E+00
  0.00000000E+00  0.00000000E+00  0.00000000E+00
  0.00000000E+00  0.00000000E+00  0.00000000E+00
  0.00000000E+00  0.00000000E+00  0.00000000E+00
  0.00000000E+00  0.00000000E+00  0.00000000E+00
  0.00000000E+00  0.00000000E+00  0.00000000E+00
  0.00000000E+00  0.00000000E+00  0.00000000E+00
  0.00000000E+00  0.00000000E+00  0.00000000E+00
  0.00000000E+00  0.00000000E+00  0.00000000E+00
  0.00000000E+00  0.00000000E+00  0.00000000E+00
  0.00000000E+00  0.00000000E+00  0.00000000E+00
  0.00000000E+00  0.00000000E+00  0.00000000E+00
  0.00000000E+00  0.00000000E+00  0.00000000E+00
  0.00000000E+00  0.00000000E+00  0.00000000E+00
  0.00000000E+00  0.00000000E+00  0.00000000E+00
  0.00000000E+00  0.00000000E+00  0.00000000E+00
  0.00000000E+00  0.00000000E+00  0.00000000E+00
  0.00000000E+00  0.00000000E+00  0.00000000E+00
  0.00000000E+00  0.00000000E+00  0.00000000E+00
  0.00000000E+00  0.00000000E+00  0.00000000E+00
  0.00000000E+00  0.00000000E+00  0.00000000E+00
  0.00000000E+00  0.00000000E+00  0.00000000E+00
  0.00000000E+00  0.00000000E+00  0.00000000E+00
  0.00000000E+00  0.00000000E+00  0.00000000E+00
  0.00000000E+00  0.00000000E+00  0.00000000E+00
  0.00000000E+00  0.00000000E+00  0.00000000E+00
  0.00000000E+00  0.00000000E+00  0.00000000E+00
  0.00000000E+00  0.00000000E+00  0.00000000E+00
  0.00000000E+00  0.00000000E+00  0.00000000E+00
  0.00000000E+00  0.00000000E+00  0.00000000E+00
  0.00000000E+00  0.00000000E+00  0.00000000E+00
  0.00000000E+00  0.00000000E+00  0.00000000E+00
  0.00000000E+00  0.00000000E+00  0.00000000E+00
  0.00000000E+00  0.00000000E+00  0.00000000E+00
  0.00000000E+00  0.00000000E+00  0.00000000E+00
  0.00000000E+00  0.00000000E+00  0.00000000E+00
  0.00000000E+00  0.00000000E+00  0.00000000E+00
  0.00000000E+00  0.00000000E+00  0.00000000E+00
  0.00000000E+00  0.00000000E+00  0.00000000E+00
  0.00000000E+00  0.00000000E+00  0.00000000E+00
  0.00000000E+00  0.00000000E+00  0.00000000E+00
  0.00000000E+00  0.00000000E+00  0.00000000E+00
  0.00000000E+00  0.00000000E+00  0.00000000E+00
  0.00000000E+00  0.00000000E+00  0.00000000E+00
  0.00000000E+00  0.00000000E+00  0.00000000E+00
  0.00000000E+00  0.00000000E+00  0.00000000E+00
  0.00000000E+00  0.00000000E+00  0.00000000E+00
  0.00000000E+00  0.00000000E+00  0.00000000E+00
  0.00000000E+00  0.00000000E+00  0.00000000E+00
  0.00000000E+00  0.00000000E+00  0.00000000E+00
  0.00000000E+00  0.00000000E+00  0.00000000E+00
  0.00000000E+00  0.00000000E+00  0.00000000E+00
  0.00000000E+00  0.00000000E+00  0.00000000E+00
  0.00000000E+00  0.00000000E+00  0.00000000E+00
  0.00000000E+00  0.00000000E+00  0.00000000E+00
  0.00000000E+00  0.00000000E+00  0.00000000E+00
  0.00000000E+00  0.00000000E+00  0.00000000E+00
  0.00000000E+00  0.00000000E+00  0.00000000E+00
  0.00000000E+00  0.00000000E+00  0.00000000E+00
  0.00000000E+00  0.00000000E+00  0.00000000E+00
  0.00000000E+00  0.00000000E+00  0.00000000E+00
  0.00000000E+00  0.00000000E+00  0.00000000E+00
  0.00000000E+00  0.00000000E+00  0.00000000E+00
  0.00000000E+00  0.00000000E+00  0.00000000E+00
  0.00000000E+00  0.00000000E+00  0.00000000E+00
  0.00000000E+00  0.00000000E+00  0.00000000E+00
  0.00000000E+00  0.00000000E+00  0.00000000E+00
  0.00000000E+00  0.00000000E+00  0.00000000E+00
  0.00000000E+00  0.00000000E+00  0.00000000E+00
  0.00000000E+00  0.00000000E+00  0.00000000E+00
  0.00000000E+00  0.00000000E+00  0.00000000E+00
  0.00000000E+00  0.00000000E+00  0.00000000E+00
  0.00000000E+00  0.00000000E+00  0.00000000E+00
  0.00000000E+00  0.00000000E+00  0.00000000E+00
  0.00000000E+00  0.00000000E+00  0.00000000E+00
  0.00000000E+00  0.00000000E+00  0.00000000E+00
  0.00000000E+00  0.00000000E+00  0.00000000E+00
  0.00000000E+00  0.00000000E+00  0.00000000E+00
  0.00000000E+00  0.00000000E+00  0.00000000E+00
