10.46                                   
   1.00000000000000     
    10.4600000381000005    0.0000000000000000    0.0000000000000000
     5.2300000191000002    9.0586257565999997    0.0000000000000000
     0.0000000000000000    0.0000000000000000   22.0000000000000000
   Pt   Fe   Co   Cu   Ni   H 
    32    13    10    13    12     1
Selective dynamics
Direct
  0.7883852681498880  0.8764592384463370  0.3187940873909056   F   F   F
  0.0426491845194334  0.8821774210042435  0.3166602072772733   F   F   F
  0.2801124537430653  0.3793112227974049  0.3207172238863620   F   F   F
  0.8765600879501960  0.9618257765149352  0.4249197032590928   F   F   F
  0.1235437898923522  0.4612557925638683  0.4303215799590916   F   F   F
  0.1257851565689023  0.9601909614449795  0.4232748424818169   F   F   F
  0.8766164825702560  0.4577264263046743  0.4280822953181840   F   F   F
  0.3741890778414501  0.9599960549495066  0.4202972420499975   F   F   F
  0.8754384423323600  0.2105136423381424  0.4224266638000032   F   F   F
  0.1265609202802409  0.2099204984392387  0.4241623932636358   F   F   F
  0.6241914945810407  0.9630921210144479  0.4304541296090889   F   F   F
  0.8780030836385393  0.7084210910053770  0.4323728202590900   F   F   F
  0.3748856541087235  0.2094783391087134  0.4271729026909057   F   F   F
  0.3763678416919731  0.7112612870893429  0.4252202204500009   F   F   F
  0.6268686938723675  0.4607894317036738  0.4233347754000008   F   F   F
  0.1258361525015133  0.7103753839716305  0.4290259252545425   F   F   F
  0.6263616869305935  0.2106129971546693  0.4232352611954511   F   F   F
  0.5489170604542508  0.3745035852737715  0.3173130577545464   F   F   F
  0.5362166644903539  0.1222847593624152  0.3169297274409075   F   F   F
  0.5463555366722659  0.1234644042320809  0.0380197407818201   F   F   F
  0.1212406355885420  0.4603947908281114  0.1271502081727292   F   F   F
  0.0428390315459239  0.1367909778364762  0.3143138385454520   F   F   F
  0.0428389108519767  0.1298145715251806  0.0317328682500033   F   F   F
  0.1301938677345404  0.9582784145570145  0.1312468517272762   F   F   F
  0.3758323262882897  0.4605480774012989  0.4280293933181838   F   F   F
  0.4540328858898093  0.5454509107410743  0.2187083565727264   F   F   F
  0.6239190522409288  0.7086105145610162  0.4285400602545479   F   F   F
  0.9563613465427778  0.7904679018981327  0.2212711332454518   F   F   F
  0.7936074223336078  0.6219649084846068  0.3200203210863606   F   F   F
  0.2921372359841286  0.6303310108864792  0.3190418737181844   F   F   F
  0.2029926352731195  0.2819160129492460  0.2253742575909072   F   F   F
  0.7072898954016935  0.5486203295548577  0.2205217376909090   F   F   F
  0.0405274320693465  0.6299321117932735  0.3275525134045481   F   F   F
  0.7977582256051079  0.8618987641708742  0.0403945815499966   F   F   F
  0.0556446370223256  0.8665462419264642  0.0360495583181830   F   F   F
  0.0467868659125017  0.6273110610690296  0.0349611334000031   F   F   F
  0.6268079290751558  0.2205144568031869  0.1279874704272714   F   F   F
  0.3824299677859813  0.9550771594351914  0.1293430731136382   F   F   F
  0.0359422194096553  0.3828714446640049  0.3254594236318198   F   F   F
  0.0322869523519600  0.3824189837598766  0.0357072738636361   F   F   F
  0.8718083387422340  0.2155041916681100  0.1275053200954517   F   F   F
  0.9551923697383700  0.5450551850541601  0.2237018674999973   F   F   F
  0.2965771847466598  0.1154578435076630  0.3214973898500020   F   F   F
  0.5406593615612039  0.6299703148065490  0.3224373689636337   F   F   F
  0.2950173595978711  0.1200886714861156  0.0375064116590877   F   F   F
  0.5475598048847914  0.6253949978198818  0.0421816458272701   F   F   F
  0.2945030729956244  0.3799106327129778  0.0369388269681821   F   F   F
  0.6254732335659057  0.9512088976103286  0.1314671777590917   F   F   F
  0.7062955093175702  0.7947981595502327  0.2196547961772737   F   F   F
  0.8663903657623848  0.7066093915334122  0.1280570884590944   F   F   F
  0.6260467991886856  0.4606603453796083  0.1263164780090875   F   F   F
  0.2987492037112816  0.8748547211066722  0.3176859856227239   F   F   F
  0.3052443792951109  0.8677867716383574  0.0391308983727257   F   F   F
  0.6272703420228964  0.7138141950492667  0.1276925297318172   F   F   F
  0.2234256011540126  0.0289588899738860  0.2271318947636374   F   F   F
  0.5432742054046216  0.3804519971132478  0.0330732290090907   F   F   F
  0.3785909415057347  0.2051562216648577  0.1314700547818148   F   F   F
  0.1350161306793751  0.7053169766114777  0.1306768704272727   F   F   F
  0.7050897259590414  0.0499878032791088  0.2204400288863653   F   F   F
  0.7933198123800480  0.1290695808630957  0.3172849056681812   F   F   F
  0.5390903624209997  0.8721570848143045  0.3171781609727304   F   F   F
  0.7961297016593818  0.1231870354603117  0.0328180932681832   F   F   F
  0.5460691330525478  0.8700680657833288  0.0347715803136381   F   F   F
  0.2070546213865541  0.5423754641392833  0.2243282066681829   F   F   F
  0.9518391764879297  0.2957259705588555  0.2207862691727271   F   F   F
  0.8717417800869072  0.9631728889829745  0.1282003082863667   F   F   F
  0.7139194298393150  0.2891101091125066  0.2228863708681814   F   F   F
  0.4574638451757664  0.2907874154068892  0.2206832389863607   F   F   F
  0.8752232243195124  0.4564829535856703  0.1268246701363651   F   F   F
  0.1275845306887575  0.2075320190957513  0.1280611435136336   F   F   F
  0.7923383526104573  0.6224713498503576  0.0390182938136334   F   F   F
  0.2981210247439137  0.6250642790022098  0.0405325909590886   F   F   F
  0.3856345194526227  0.7104295515035659  0.1282660679000003   F   F   F
  0.3824089299364672  0.4515722852905810  0.1254473441363615   F   F   F
  0.7933956475243491  0.3778529674665236  0.3205075681227285   F   F   F
  0.7908434017921309  0.3772889937317387  0.0379094772499968   F   F   F
  0.9558483290959217  0.0518719835464694  0.2213215703227291   F   F   F
  0.4578819920548582  0.7970605714602357  0.2241192740363616   F   F   F
  0.2121545357347188  0.7980517207627074  0.2244880538272724   F   F   F
  0.4623873984073086  0.0312412715575334  0.2218168949681782   F   F   F
  0.6934730453363969  0.8168143260150700  0.4789641192454532   T   T   T
 
  0.00000000E+00  0.00000000E+00  0.00000000E+00
  0.00000000E+00  0.00000000E+00  0.00000000E+00
  0.00000000E+00  0.00000000E+00  0.00000000E+00
  0.00000000E+00  0.00000000E+00  0.00000000E+00
  0.00000000E+00  0.00000000E+00  0.00000000E+00
  0.00000000E+00  0.00000000E+00  0.00000000E+00
  0.00000000E+00  0.00000000E+00  0.00000000E+00
  0.00000000E+00  0.00000000E+00  0.00000000E+00
  0.00000000E+00  0.00000000E+00  0.00000000E+00
  0.00000000E+00  0.00000000E+00  0.00000000E+00
  0.00000000E+00  0.00000000E+00  0.00000000E+00
  0.00000000E+00  0.00000000E+00  0.00000000E+00
  0.00000000E+00  0.00000000E+00  0.00000000E+00
  0.00000000E+00  0.00000000E+00  0.00000000E+00
  0.00000000E+00  0.00000000E+00  0.00000000E+00
  0.00000000E+00  0.00000000E+00  0.00000000E+00
  0.00000000E+00  0.00000000E+00  0.00000000E+00
  0.00000000E+00  0.00000000E+00  0.00000000E+00
  0.00000000E+00  0.00000000E+00  0.00000000E+00
  0.00000000E+00  0.00000000E+00  0.00000000E+00
  0.00000000E+00  0.00000000E+00  0.00000000E+00
  0.00000000E+00  0.00000000E+00  0.00000000E+00
  0.00000000E+00  0.00000000E+00  0.00000000E+00
  0.00000000E+00  0.00000000E+00  0.00000000E+00
  0.00000000E+00  0.00000000E+00  0.00000000E+00
  0.00000000E+00  0.00000000E+00  0.00000000E+00
  0.00000000E+00  0.00000000E+00  0.00000000E+00
  0.00000000E+00  0.00000000E+00  0.00000000E+00
  0.00000000E+00  0.00000000E+00  0.00000000E+00
  0.00000000E+00  0.00000000E+00  0.00000000E+00
  0.00000000E+00  0.00000000E+00  0.00000000E+00
  0.00000000E+00  0.00000000E+00  0.00000000E+00
  0.00000000E+00  0.00000000E+00  0.00000000E+00
  0.00000000E+00  0.00000000E+00  0.00000000E+00
  0.00000000E+00  0.00000000E+00  0.00000000E+00
  0.00000000E+00  0.00000000E+00  0.00000000E+00
  0.00000000E+00  0.00000000E+00  0.00000000E+00
  0.00000000E+00  0.00000000E+00  0.00000000E+00
  0.00000000E+00  0.00000000E+00  0.00000000E+00
  0.00000000E+00  0.00000000E+00  0.00000000E+00
  0.00000000E+00  0.00000000E+00  0.00000000E+00
  0.00000000E+00  0.00000000E+00  0.00000000E+00
  0.00000000E+00  0.00000000E+00  0.00000000E+00
  0.00000000E+00  0.00000000E+00  0.00000000E+00
  0.00000000E+00  0.00000000E+00  0.00000000E+00
  0.00000000E+00  0.00000000E+00  0.00000000E+00
  0.00000000E+00  0.00000000E+00  0.00000000E+00
  0.00000000E+00  0.00000000E+00  0.00000000E+00
  0.00000000E+00  0.00000000E+00  0.00000000E+00
  0.00000000E+00  0.00000000E+00  0.00000000E+00
  0.00000000E+00  0.00000000E+00  0.00000000E+00
  0.00000000E+00  0.00000000E+00  0.00000000E+00
  0.00000000E+00  0.00000000E+00  0.00000000E+00
  0.00000000E+00  0.00000000E+00  0.00000000E+00
  0.00000000E+00  0.00000000E+00  0.00000000E+00
  0.00000000E+00  0.00000000E+00  0.00000000E+00
  0.00000000E+00  0.00000000E+00  0.00000000E+00
  0.00000000E+00  0.00000000E+00  0.00000000E+00
  0.00000000E+00  0.00000000E+00  0.00000000E+00
  0.00000000E+00  0.00000000E+00  0.00000000E+00
  0.00000000E+00  0.00000000E+00  0.00000000E+00
  0.00000000E+00  0.00000000E+00  0.00000000E+00
  0.00000000E+00  0.00000000E+00  0.00000000E+00
  0.00000000E+00  0.00000000E+00  0.00000000E+00
  0.00000000E+00  0.00000000E+00  0.00000000E+00
  0.00000000E+00  0.00000000E+00  0.00000000E+00
  0.00000000E+00  0.00000000E+00  0.00000000E+00
  0.00000000E+00  0.00000000E+00  0.00000000E+00
  0.00000000E+00  0.00000000E+00  0.00000000E+00
  0.00000000E+00  0.00000000E+00  0.00000000E+00
  0.00000000E+00  0.00000000E+00  0.00000000E+00
  0.00000000E+00  0.00000000E+00  0.00000000E+00
  0.00000000E+00  0.00000000E+00  0.00000000E+00
  0.00000000E+00  0.00000000E+00  0.00000000E+00
  0.00000000E+00  0.00000000E+00  0.00000000E+00
  0.00000000E+00  0.00000000E+00  0.00000000E+00
  0.00000000E+00  0.00000000E+00  0.00000000E+00
  0.00000000E+00  0.00000000E+00  0.00000000E+00
  0.00000000E+00  0.00000000E+00  0.00000000E+00
  0.00000000E+00  0.00000000E+00  0.00000000E+00
  0.00000000E+00  0.00000000E+00  0.00000000E+00
