10.36-high                              
   1.00000000000000     
    10.3599996566999994    0.0000000000000000    0.0000000000000000
     5.1799998282999997    8.9720228858999995    0.0000000000000000
     0.0000000000000000    0.0000000000000000   22.0000000000000000
   Pt   Fe   Co   Cu   Ni
    42    10     9    10     9
Direct
  0.7770861600017334  0.8673649451848943  0.3237617318286560
  0.0388603515968786  0.8677365634448849  0.3269884595423196
  0.0325366150272978  0.6190593128611545  0.3291881929929671
  0.0297730354882373  0.3668902059439202  0.3269651905498873
  0.2876134972021548  0.1089224566990457  0.3238343550042648
  0.2848766479418128  0.3691958934263886  0.3243997926649050
  0.8646408278050243  0.7058725325431401  0.1217659829083716
  0.8713296351761384  0.9508767503758785  0.4335715274074886
  0.1194891846486120  0.4544531915404569  0.4372385933643790
  0.1203123567429416  0.9522544858935355  0.4335446612652420
  0.8701759558891543  0.4519580818023434  0.4341804508636256
  0.3698384205340146  0.9515210769728573  0.4292672824612356
  0.8703075595473065  0.2034852362536190  0.4276824748378829
  0.1199997996278870  0.2020138702599044  0.4476677128445941
  0.6203871172529772  0.9515697470874757  0.4315818801790208
  0.8694659998354465  0.7036046357794778  0.4403520835820227
  0.3699071718764967  0.2017862367746369  0.4342584785963879
  0.3692120801021710  0.7045629710722675  0.4319836130827568
  0.6209286700361097  0.4536929478542079  0.4291636813730534
  0.1204053665234811  0.7039572385933922  0.4568103580430771
  0.6200369505603999  0.2034140184159832  0.4377577673208202
  0.5390348766007006  0.3730251203536095  0.3222273544865941
  0.5339513226044120  0.1181408263851540  0.3223962412719407
  0.5383355626649413  0.1180941339910522  0.0301550028440673
  0.1231855950891810  0.4487203697526898  0.1219109513839210
  0.0345014319130586  0.1170202307768095  0.3202164245421052
  0.0340985292811229  0.1258013349585334  0.0253767847569530
  0.1136682932127656  0.9594754069275233  0.1248443396379947
  0.3681338705002353  0.4550376837734430  0.4339216177156598
  0.4528523343105607  0.5294342309230025  0.2198328966629696
  0.6191442623132739  0.7024609458343167  0.4402347330338321
  0.9492268508475490  0.7815342337214519  0.2241031514594187
  0.7729249374479917  0.6193426127531537  0.3240513757033355
  0.2898240309053110  0.6221305368775463  0.3250635388182422
  0.3768965827606005  0.6996394543346272  0.1220718676846592
  0.1985180278761162  0.2854276193065841  0.2224891451357783
  0.6988876606751296  0.5439852166466943  0.2191846812369905
  0.2011441921490262  0.7919545492241632  0.2239096422187350
  0.4504588731599838  0.0233381677218881  0.2180283780381386
  0.6968409417947484  0.0417114483472079  0.2149827256622508
  0.7838496906467981  0.1215590411534892  0.3201547128839737
  0.9476026187440639  0.2802622434716898  0.2176683427178077
  0.7889623560774539  0.8635446620028739  0.0268614884751130
  0.0444994776783001  0.8630609387700588  0.0275493600505359
  0.0409371635747144  0.6183429747782665  0.0260748059289474
  0.6176034182971130  0.2124299712053129  0.1230274664417054
  0.3686036871868295  0.9531597522397823  0.1209533722565300
  0.0255821115447815  0.3776895511207242  0.0302325116250644
  0.8621966028951910  0.2106009158800438  0.1221583554506483
  0.9477577132853148  0.5360555190294187  0.2264400690148510
  0.5328217827650369  0.6219645451812498  0.3275622857249647
  0.2882156426073049  0.1151564177287705  0.0300887023401959
  0.5486386501641576  0.6136491753264388  0.0338773491112174
  0.2885375890639922  0.3748897152763628  0.0301645100434093
  0.6135032359602534  0.9446593653606650  0.1234005397009561
  0.6982165504190821  0.7853145884732651  0.2200839535215932
  0.6228398408527659  0.4505570401314353  0.1228554445220624
  0.2909200187134126  0.8649385967102883  0.3215276889590191
  0.2914863512857465  0.8668068821302628  0.0297235691039444
  0.6196998486282680  0.7061254846898284  0.1237099873198142
  0.2048592758506576  0.0307020797106774  0.2257615685508725
  0.5361836654816816  0.3747824700902742  0.0276835105416500
  0.3718032181042040  0.2012713422694307  0.1251701677439822
  0.1212556771648974  0.7007013573302823  0.1249946763796316
  0.5306457255313688  0.8627732092265329  0.3223733559400598
  0.7871241005440107  0.1202849732841550  0.0255917755414855
  0.5387989186500374  0.8617586178297268  0.0276980729148496
  0.2010313840209724  0.5346809718874569  0.2227735377698838
  0.8644110014557346  0.9582408755618120  0.1207487177335091
  0.7008365051058607  0.2852201999129738  0.2201679290374781
  0.4471450742306834  0.2874383818261723  0.2200491269811436
  0.8674331191200115  0.4492235686685539  0.1231327100982858
  0.1220788472932494  0.2028593536586126  0.1229250914734941
  0.7837961810822747  0.6150404723538502  0.0312271135989900
  0.2842936968383261  0.6162136558535298  0.0319667020729718
  0.3769379378499286  0.4436403404339612  0.1216459100051648
  0.7812482338883874  0.3720446274383616  0.3212006465790885
  0.7825807883373179  0.3729598669053635  0.0323011406635353
  0.9475055439215206  0.0368258384677753  0.2201835970768201
  0.4519353076153064  0.7840246702413546  0.2260150760982148
 
  0.00000000E+00  0.00000000E+00  0.00000000E+00
  0.00000000E+00  0.00000000E+00  0.00000000E+00
  0.00000000E+00  0.00000000E+00  0.00000000E+00
  0.00000000E+00  0.00000000E+00  0.00000000E+00
  0.00000000E+00  0.00000000E+00  0.00000000E+00
  0.00000000E+00  0.00000000E+00  0.00000000E+00
  0.00000000E+00  0.00000000E+00  0.00000000E+00
  0.00000000E+00  0.00000000E+00  0.00000000E+00
  0.00000000E+00  0.00000000E+00  0.00000000E+00
  0.00000000E+00  0.00000000E+00  0.00000000E+00
  0.00000000E+00  0.00000000E+00  0.00000000E+00
  0.00000000E+00  0.00000000E+00  0.00000000E+00
  0.00000000E+00  0.00000000E+00  0.00000000E+00
  0.00000000E+00  0.00000000E+00  0.00000000E+00
  0.00000000E+00  0.00000000E+00  0.00000000E+00
  0.00000000E+00  0.00000000E+00  0.00000000E+00
  0.00000000E+00  0.00000000E+00  0.00000000E+00
  0.00000000E+00  0.00000000E+00  0.00000000E+00
  0.00000000E+00  0.00000000E+00  0.00000000E+00
  0.00000000E+00  0.00000000E+00  0.00000000E+00
  0.00000000E+00  0.00000000E+00  0.00000000E+00
  0.00000000E+00  0.00000000E+00  0.00000000E+00
  0.00000000E+00  0.00000000E+00  0.00000000E+00
  0.00000000E+00  0.00000000E+00  0.00000000E+00
  0.00000000E+00  0.00000000E+00  0.00000000E+00
  0.00000000E+00  0.00000000E+00  0.00000000E+00
  0.00000000E+00  0.00000000E+00  0.00000000E+00
  0.00000000E+00  0.00000000E+00  0.00000000E+00
  0.00000000E+00  0.00000000E+00  0.00000000E+00
  0.00000000E+00  0.00000000E+00  0.00000000E+00
  0.00000000E+00  0.00000000E+00  0.00000000E+00
  0.00000000E+00  0.00000000E+00  0.00000000E+00
  0.00000000E+00  0.00000000E+00  0.00000000E+00
  0.00000000E+00  0.00000000E+00  0.00000000E+00
  0.00000000E+00  0.00000000E+00  0.00000000E+00
  0.00000000E+00  0.00000000E+00  0.00000000E+00
  0.00000000E+00  0.00000000E+00  0.00000000E+00
  0.00000000E+00  0.00000000E+00  0.00000000E+00
  0.00000000E+00  0.00000000E+00  0.00000000E+00
  0.00000000E+00  0.00000000E+00  0.00000000E+00
  0.00000000E+00  0.00000000E+00  0.00000000E+00
  0.00000000E+00  0.00000000E+00  0.00000000E+00
  0.00000000E+00  0.00000000E+00  0.00000000E+00
  0.00000000E+00  0.00000000E+00  0.00000000E+00
  0.00000000E+00  0.00000000E+00  0.00000000E+00
  0.00000000E+00  0.00000000E+00  0.00000000E+00
  0.00000000E+00  0.00000000E+00  0.00000000E+00
  0.00000000E+00  0.00000000E+00  0.00000000E+00
  0.00000000E+00  0.00000000E+00  0.00000000E+00
  0.00000000E+00  0.00000000E+00  0.00000000E+00
  0.00000000E+00  0.00000000E+00  0.00000000E+00
  0.00000000E+00  0.00000000E+00  0.00000000E+00
  0.00000000E+00  0.00000000E+00  0.00000000E+00
  0.00000000E+00  0.00000000E+00  0.00000000E+00
  0.00000000E+00  0.00000000E+00  0.00000000E+00
  0.00000000E+00  0.00000000E+00  0.00000000E+00
  0.00000000E+00  0.00000000E+00  0.00000000E+00
  0.00000000E+00  0.00000000E+00  0.00000000E+00
  0.00000000E+00  0.00000000E+00  0.00000000E+00
  0.00000000E+00  0.00000000E+00  0.00000000E+00
  0.00000000E+00  0.00000000E+00  0.00000000E+00
  0.00000000E+00  0.00000000E+00  0.00000000E+00
  0.00000000E+00  0.00000000E+00  0.00000000E+00
  0.00000000E+00  0.00000000E+00  0.00000000E+00
  0.00000000E+00  0.00000000E+00  0.00000000E+00
  0.00000000E+00  0.00000000E+00  0.00000000E+00
  0.00000000E+00  0.00000000E+00  0.00000000E+00
  0.00000000E+00  0.00000000E+00  0.00000000E+00
  0.00000000E+00  0.00000000E+00  0.00000000E+00
  0.00000000E+00  0.00000000E+00  0.00000000E+00
  0.00000000E+00  0.00000000E+00  0.00000000E+00
  0.00000000E+00  0.00000000E+00  0.00000000E+00
  0.00000000E+00  0.00000000E+00  0.00000000E+00
  0.00000000E+00  0.00000000E+00  0.00000000E+00
  0.00000000E+00  0.00000000E+00  0.00000000E+00
  0.00000000E+00  0.00000000E+00  0.00000000E+00
  0.00000000E+00  0.00000000E+00  0.00000000E+00
  0.00000000E+00  0.00000000E+00  0.00000000E+00
  0.00000000E+00  0.00000000E+00  0.00000000E+00
  0.00000000E+00  0.00000000E+00  0.00000000E+00
