10.66                                   
   1.00000000000000     
    10.6599998474000000    0.0000000000000000    0.0000000000000000
     5.3299999237000000    9.2318306721999992    0.0000000000000000
     0.0000000000000000    0.0000000000000000   22.0000000000000000
   Pt   Fe   Co   Cu   Ni   H 
    32    13    10    13    12     1
Selective dynamics
Direct
  0.7869178873778205  0.8785696050492183  0.3168216907784655   T   T   T
  0.0432347610340009  0.8813903674478709  0.3149834174068148   T   T   T
  0.2780674903089924  0.3810750398392994  0.3190248670210354   T   T   T
  0.8731431810103224  0.9651027506829255  0.4208336940909289   T   T   T
  0.1237482558619037  0.4589578467311364  0.4281785174646166   T   T   T
  0.1245430137955734  0.9620242706468874  0.4198322045633402   T   T   T
  0.8734409264673767  0.4580226284366024  0.4238634980626420   T   T   T
  0.3742198504818539  0.9601924802514025  0.4191307702069137   T   T   T
  0.8734954462264916  0.2113035309388267  0.4195089042334350   T   T   T
  0.1251968334988481  0.2116892377703891  0.4207307987416112   T   T   T
  0.6241765212517327  0.9611372951326034  0.4221561700441361   T   T   T
  0.8709394107667776  0.7123818321083970  0.4268201015201175   T   T   T
  0.3748511544710359  0.2089769555856018  0.4230358384575918   T   T   T
  0.3759184184487137  0.7126991007102410  0.4221895128616471   T   T   T
  0.6249811781910833  0.4621776614578190  0.4212741174328276   T   T   T
  0.1249825430156529  0.7128021141269693  0.4272624652289011   T   T   T
  0.6241505384418983  0.2105289568215927  0.4209634007013138   T   T   T
  0.5486690147749452  0.3751330958687225  0.3162765719111563   T   T   T
  0.5342479221827793  0.1250538986754418  0.3142186551656300   T   T   T
  0.5486022592113002  0.1220783678684398  0.0417194611409073   F   F   F
  0.1203770114094098  0.4596758926676330  0.1283201030954544   F   F   F
  0.0436893162849778  0.1359858821856379  0.3135325276066713   T   T   T
  0.0418426388172080  0.1305148925801163  0.0343023685500015   F   F   F
  0.1308766909586225  0.9576410281464973  0.1324593496136330   F   F   F
  0.3761952535107676  0.4606588217763392  0.4237622832112066   T   T   T
  0.4551757441947770  0.5455454065490120  0.2185955934787891   T   T   T
  0.6227672463434323  0.7112517909797221  0.4220020664706663   T   T   T
  0.9562168326184457  0.7887180283089080  0.2209312350677187   T   T   T
  0.7948954660846176  0.6226770509829185  0.3185601281055124   T   T   T
  0.2918157973404681  0.6304836316041418  0.3178675151336324   T   T   T
  0.2025094759105776  0.2793666596083959  0.2253881900738032   T   T   T
  0.7061923534708362  0.5495166475286373  0.2209072465433396   T   T   T
  0.0408742083844668  0.6310984093867956  0.3254286127756899   T   T   T
  0.7960105560665554  0.8618201000109948  0.0435832611454572   F   F   F
  0.0565437832242921  0.8651109997121225  0.0392200758363614   F   F   F
  0.0435481061810350  0.6317236463144766  0.0389093084545422   F   F   F
  0.6276815134142240  0.2235163201393817  0.1293691217272723   F   F   F
  0.3825164796165623  0.9540841432375444  0.1307328652727264   F   F   F
  0.0351405946103812  0.3834737532971210  0.3234292511191857   T   T   T
  0.0278953743126209  0.3811135671600852  0.0392268803136346   F   F   F
  0.8723854835080758  0.2152433571581582  0.1290949134499968   F   F   F
  0.9551452489781710  0.5446199597237156  0.2239743961157693   T   T   T
  0.2970861139624816  0.1154841149861423  0.3206476947317747   T   T   T
  0.5408774982159255  0.6291375177196358  0.3212698342087468   T   T   T
  0.2959387413066850  0.1156684851700760  0.0410976887409120   F   F   F
  0.5491575652165039  0.6253534475437093  0.0451299578272710   F   F   F
  0.2944436057289366  0.3818825695120651  0.0395469972636349   F   F   F
  0.6257779840731033  0.9479981115397109  0.1328387403227254   F   F   F
  0.7075269353421882  0.7931655653325932  0.2204273901138160   T   T   T
  0.8652306351059451  0.7044347069518153  0.1296516185590875   F   F   F
  0.6267408805099777  0.4597839886277342  0.1279108792227248   F   F   F
  0.2978334478497428  0.8749227601301878  0.3178278912599804   T   T   T
  0.3065683121091567  0.8685951938597540  0.0415361194227302   F   F   F
  0.6265607890783187  0.7150544964909855  0.1290314723727306   F   F   F
  0.2256603765029472  0.0271874634245671  0.2274417300951849   T   T   T
  0.5442540274210828  0.3813987627289208  0.0359396309863627   F   F   F
  0.3788308164937106  0.2041435759404919  0.1334105030954547   F   F   F
  0.1370202990309650  0.7046968196449441  0.1327566403363605   F   F   F
  0.7048527933364757  0.0504992484277057  0.2202997203115785   T   T   T
  0.7930335918627665  0.1293710392023914  0.3162420882554665   T   T   T
  0.5385409350147053  0.8729988375972846  0.3166962569831387   T   T   T
  0.7969090446290110  0.1230080278139880  0.0358981495909063   F   F   F
  0.5463967724760010  0.8699164031445790  0.0370350138545490   F   F   F
  0.2080064887542525  0.5422013500182234  0.2238527000548866   T   T   T
  0.9510557140938068  0.2976281942704247  0.2216224585158094   T   T   T
  0.8720363512232439  0.9641267701868443  0.1296642823045460   F   F   F
  0.7157073467522632  0.2895448563443511  0.2235688982190862   T   T   T
  0.4573029888942830  0.2923093576707884  0.2207934150276354   T   T   T
  0.8754952507754368  0.4570332552356646  0.1289402077090926   F   F   F
  0.1280802376379100  0.2061871464271974  0.1293457843363655   F   F   F
  0.7920109362154477  0.6217651118845851  0.0414976089772736   F   F   F
  0.2975223793196520  0.6287043760646469  0.0435603156136395   F   F   F
  0.3861497401569878  0.7125257726301442  0.1296682481727274   F   F   F
  0.3823461753116746  0.4514638794503369  0.1268844718136393   F   F   F
  0.7929875970974368  0.3795030950680275  0.3200531029234708   T   T   T
  0.7914206266351727  0.3768939204309305  0.0409385091409078   F   F   F
  0.9555788951276266  0.0530966277289473  0.2214230388528249   T   T   T
  0.4585383124455361  0.7961781521799806  0.2248471060942095   T   T   T
  0.2148267436898142  0.7974097486731562  0.2248382734728513   T   T   T
  0.4621565277896815  0.0290983491405783  0.2225231178564648   T   T   T
  0.0393717032171172  0.6333947135236969  0.4729475136164187   T   T   T
 
  0.00000000E+00  0.00000000E+00  0.00000000E+00
  0.00000000E+00  0.00000000E+00  0.00000000E+00
  0.00000000E+00  0.00000000E+00  0.00000000E+00
  0.00000000E+00  0.00000000E+00  0.00000000E+00
  0.00000000E+00  0.00000000E+00  0.00000000E+00
  0.00000000E+00  0.00000000E+00  0.00000000E+00
  0.00000000E+00  0.00000000E+00  0.00000000E+00
  0.00000000E+00  0.00000000E+00  0.00000000E+00
  0.00000000E+00  0.00000000E+00  0.00000000E+00
  0.00000000E+00  0.00000000E+00  0.00000000E+00
  0.00000000E+00  0.00000000E+00  0.00000000E+00
  0.00000000E+00  0.00000000E+00  0.00000000E+00
  0.00000000E+00  0.00000000E+00  0.00000000E+00
  0.00000000E+00  0.00000000E+00  0.00000000E+00
  0.00000000E+00  0.00000000E+00  0.00000000E+00
  0.00000000E+00  0.00000000E+00  0.00000000E+00
  0.00000000E+00  0.00000000E+00  0.00000000E+00
  0.00000000E+00  0.00000000E+00  0.00000000E+00
  0.00000000E+00  0.00000000E+00  0.00000000E+00
  0.00000000E+00  0.00000000E+00  0.00000000E+00
  0.00000000E+00  0.00000000E+00  0.00000000E+00
  0.00000000E+00  0.00000000E+00  0.00000000E+00
  0.00000000E+00  0.00000000E+00  0.00000000E+00
  0.00000000E+00  0.00000000E+00  0.00000000E+00
  0.00000000E+00  0.00000000E+00  0.00000000E+00
  0.00000000E+00  0.00000000E+00  0.00000000E+00
  0.00000000E+00  0.00000000E+00  0.00000000E+00
  0.00000000E+00  0.00000000E+00  0.00000000E+00
  0.00000000E+00  0.00000000E+00  0.00000000E+00
  0.00000000E+00  0.00000000E+00  0.00000000E+00
  0.00000000E+00  0.00000000E+00  0.00000000E+00
  0.00000000E+00  0.00000000E+00  0.00000000E+00
  0.00000000E+00  0.00000000E+00  0.00000000E+00
  0.00000000E+00  0.00000000E+00  0.00000000E+00
  0.00000000E+00  0.00000000E+00  0.00000000E+00
  0.00000000E+00  0.00000000E+00  0.00000000E+00
  0.00000000E+00  0.00000000E+00  0.00000000E+00
  0.00000000E+00  0.00000000E+00  0.00000000E+00
  0.00000000E+00  0.00000000E+00  0.00000000E+00
  0.00000000E+00  0.00000000E+00  0.00000000E+00
  0.00000000E+00  0.00000000E+00  0.00000000E+00
  0.00000000E+00  0.00000000E+00  0.00000000E+00
  0.00000000E+00  0.00000000E+00  0.00000000E+00
  0.00000000E+00  0.00000000E+00  0.00000000E+00
  0.00000000E+00  0.00000000E+00  0.00000000E+00
  0.00000000E+00  0.00000000E+00  0.00000000E+00
  0.00000000E+00  0.00000000E+00  0.00000000E+00
  0.00000000E+00  0.00000000E+00  0.00000000E+00
  0.00000000E+00  0.00000000E+00  0.00000000E+00
  0.00000000E+00  0.00000000E+00  0.00000000E+00
  0.00000000E+00  0.00000000E+00  0.00000000E+00
  0.00000000E+00  0.00000000E+00  0.00000000E+00
  0.00000000E+00  0.00000000E+00  0.00000000E+00
  0.00000000E+00  0.00000000E+00  0.00000000E+00
  0.00000000E+00  0.00000000E+00  0.00000000E+00
  0.00000000E+00  0.00000000E+00  0.00000000E+00
  0.00000000E+00  0.00000000E+00  0.00000000E+00
  0.00000000E+00  0.00000000E+00  0.00000000E+00
  0.00000000E+00  0.00000000E+00  0.00000000E+00
  0.00000000E+00  0.00000000E+00  0.00000000E+00
  0.00000000E+00  0.00000000E+00  0.00000000E+00
  0.00000000E+00  0.00000000E+00  0.00000000E+00
  0.00000000E+00  0.00000000E+00  0.00000000E+00
  0.00000000E+00  0.00000000E+00  0.00000000E+00
  0.00000000E+00  0.00000000E+00  0.00000000E+00
  0.00000000E+00  0.00000000E+00  0.00000000E+00
  0.00000000E+00  0.00000000E+00  0.00000000E+00
  0.00000000E+00  0.00000000E+00  0.00000000E+00
  0.00000000E+00  0.00000000E+00  0.00000000E+00
  0.00000000E+00  0.00000000E+00  0.00000000E+00
  0.00000000E+00  0.00000000E+00  0.00000000E+00
  0.00000000E+00  0.00000000E+00  0.00000000E+00
  0.00000000E+00  0.00000000E+00  0.00000000E+00
  0.00000000E+00  0.00000000E+00  0.00000000E+00
  0.00000000E+00  0.00000000E+00  0.00000000E+00
  0.00000000E+00  0.00000000E+00  0.00000000E+00
  0.00000000E+00  0.00000000E+00  0.00000000E+00
  0.00000000E+00  0.00000000E+00  0.00000000E+00
  0.00000000E+00  0.00000000E+00  0.00000000E+00
  0.00000000E+00  0.00000000E+00  0.00000000E+00
  0.00000000E+00  0.00000000E+00  0.00000000E+00
