10.66                                   
   1.00000000000000     
    10.6599998474000000    0.0000000000000000    0.0000000000000000
     5.3299999237000000    9.2318306721999992    0.0000000000000000
     0.0000000000000000    0.0000000000000000   22.0000000000000000
   Pt   Fe   Co   Cu   Ni   H 
    32    13    10    13    12     1
Selective dynamics
Direct
  0.7879955938562375  0.8796667773656992  0.3171863512772717   F   F   F
  0.0418257447683388  0.8823479178002316  0.3143347946545489   F   F   F
  0.2795979821577177  0.3805671811637268  0.3187542166454520   F   F   F
  0.8738047203056709  0.9604882623769910  0.4268482304818164   F   F   F
  0.1212580934631688  0.4625932664319876  0.4259218693863644   F   F   F
  0.1273492081001848  0.9600495587499651  0.4183817600909094   F   F   F
  0.8742748267340446  0.4590537940066071  0.4236639171181835   F   F   F
  0.3745317458265376  0.9596495378731618  0.4191400697727303   F   F   F
  0.8741159957278626  0.2124737190324311  0.4237113756818189   F   F   F
  0.1262692508826575  0.2114693008807933  0.4208523919909055   F   F   F
  0.6234323990594532  0.9600979270764469  0.4222107818454575   F   F   F
  0.8739529034389406  0.7111744530335287  0.4242976627772705   F   F   F
  0.3744079002202625  0.2086322454981726  0.4232876440318165   F   F   F
  0.3756710762676860  0.7118083413930307  0.4223516002181853   F   F   F
  0.6248261122642518  0.4622601492086318  0.4209351002272754   F   F   F
  0.1248309335296369  0.7094638358265257  0.4239504624590893   F   F   F
  0.6219967728047564  0.2115184682470641  0.4195434294727249   F   F   F
  0.5485539624126048  0.3755196380756232  0.3161955794818212   F   F   F
  0.5346749586649935  0.1241619212375369  0.3143138723409109   F   F   F
  0.5486022592113002  0.1220783678684398  0.0417194611409073   F   F   F
  0.1203770114094098  0.4596758926676330  0.1283201030954544   F   F   F
  0.0420896899671277  0.1369283704917379  0.3135295433090874   F   F   F
  0.0418426388172080  0.1305148925801163  0.0343023685500015   F   F   F
  0.1308766909586225  0.9576410281464973  0.1324593496136330   F   F   F
  0.3742428397508206  0.4615756260382682  0.4243568171499987   F   F   F
  0.4553969294902132  0.5455345868578192  0.2186776207272700   F   F   F
  0.6226803665844045  0.7112935412013073  0.4222227813409063   F   F   F
  0.9556427550695474  0.7884461448495586  0.2206484572545477   F   F   F
  0.7947218989198603  0.6233695298408861  0.3184710074909063   F   F   F
  0.2913250365613749  0.6314586181974207  0.3173731809363645   F   F   F
  0.2026114207030432  0.2794095144170683  0.2253589972136396   F   F   F
  0.7062071249396098  0.5494960364985886  0.2209492674409077   F   F   F
  0.0410512751004788  0.6306422307150683  0.3240014303727250   F   F   F
  0.7960105560665554  0.8618201000109948  0.0435832611454572   F   F   F
  0.0565437832242921  0.8651109997121225  0.0392200758363614   F   F   F
  0.0435481061810350  0.6317236463144766  0.0389093084545422   F   F   F
  0.6276815134142240  0.2235163201393817  0.1293691217272723   F   F   F
  0.3825164796165623  0.9540841432375444  0.1307328652727264   F   F   F
  0.0361215265050561  0.3830847457969284  0.3232932970363649   F   F   F
  0.0278953743126209  0.3811135671600852  0.0392268803136346   F   F   F
  0.8723854835080758  0.2152433571581582  0.1290949134499968   F   F   F
  0.9549846707687024  0.5441087069140309  0.2237803274545485   F   F   F
  0.2964479700729754  0.1160591070010000  0.3207443413909061   F   F   F
  0.5407207577533981  0.6292517765618442  0.3215004770681844   F   F   F
  0.2959387413066850  0.1156684851700760  0.0410976887409120   F   F   F
  0.5491575652165039  0.6253534475437093  0.0451299578272710   F   F   F
  0.2944436057289366  0.3818825695120651  0.0395469972636349   F   F   F
  0.6257779840731033  0.9479981115397109  0.1328387403227254   F   F   F
  0.7068940346521302  0.7928917021347033  0.2198879512318186   F   F   F
  0.8652306351059451  0.7044347069518153  0.1296516185590875   F   F   F
  0.6267408805099777  0.4597839886277342  0.1279108792227248   F   F   F
  0.2971221323620696  0.8754612199547651  0.3178891465227238   F   F   F
  0.3065683121091567  0.8685951938597540  0.0415361194227302   F   F   F
  0.6265607890783187  0.7150544964909855  0.1290314723727306   F   F   F
  0.2262159432928641  0.0271098129056497  0.2275667160136337   F   F   F
  0.5442540274210828  0.3813987627289208  0.0359396309863627   F   F   F
  0.3788308164937106  0.2041435759404919  0.1334105030954547   F   F   F
  0.1370202990309650  0.7046968196449441  0.1327566403363605   F   F   F
  0.7051579299808850  0.0502380594454195  0.2206128436045489   F   F   F
  0.7941356213779471  0.1296857824748940  0.3174250845136370   F   F   F
  0.5387081844826156  0.8728660426870363  0.3167430674454579   F   F   F
  0.7969090446290110  0.1230080278139880  0.0358981495909063   F   F   F
  0.5463967724760010  0.8699164031445790  0.0370350138545490   F   F   F
  0.2082688145746943  0.5418733581914665  0.2237411418045454   F   F   F
  0.9511036892187903  0.2977629045751229  0.2214990383818147   F   F   F
  0.8720363512232439  0.9641267701868443  0.1296642823045460   F   F   F
  0.7157153079776890  0.2894581580603415  0.2236201062454555   F   F   F
  0.4575295935626329  0.2920605149766544  0.2208959544727307   F   F   F
  0.8754952507754368  0.4570332552356646  0.1289402077090926   F   F   F
  0.1280802376379100  0.2061871464271974  0.1293457843363655   F   F   F
  0.7920109362154477  0.6217651118845851  0.0414976089772736   F   F   F
  0.2975223793196520  0.6287043760646469  0.0435603156136395   F   F   F
  0.3861497401569878  0.7125257726301442  0.1296682481727274   F   F   F
  0.3823461753116746  0.4514638794503369  0.1268844718136393   F   F   F
  0.7934806128889633  0.3795127324475800  0.3199625325727240   F   F   F
  0.7914206266351727  0.3768939204309305  0.0409385091409078   F   F   F
  0.9550656499175076  0.0535911063436032  0.2213439395590910   F   F   F
  0.4592147863868306  0.7962082456553929  0.2249427446772714   F   F   F
  0.2165196263093065  0.7971140321019732  0.2244060626681801   F   F   F
  0.4626375975941954  0.0291987770867266  0.2224498695499975   F   F   F
  0.8734813041625314  0.0854730806833501  0.4759996749409076   T   T   T
 
  0.00000000E+00  0.00000000E+00  0.00000000E+00
  0.00000000E+00  0.00000000E+00  0.00000000E+00
  0.00000000E+00  0.00000000E+00  0.00000000E+00
  0.00000000E+00  0.00000000E+00  0.00000000E+00
  0.00000000E+00  0.00000000E+00  0.00000000E+00
  0.00000000E+00  0.00000000E+00  0.00000000E+00
  0.00000000E+00  0.00000000E+00  0.00000000E+00
  0.00000000E+00  0.00000000E+00  0.00000000E+00
  0.00000000E+00  0.00000000E+00  0.00000000E+00
  0.00000000E+00  0.00000000E+00  0.00000000E+00
  0.00000000E+00  0.00000000E+00  0.00000000E+00
  0.00000000E+00  0.00000000E+00  0.00000000E+00
  0.00000000E+00  0.00000000E+00  0.00000000E+00
  0.00000000E+00  0.00000000E+00  0.00000000E+00
  0.00000000E+00  0.00000000E+00  0.00000000E+00
  0.00000000E+00  0.00000000E+00  0.00000000E+00
  0.00000000E+00  0.00000000E+00  0.00000000E+00
  0.00000000E+00  0.00000000E+00  0.00000000E+00
  0.00000000E+00  0.00000000E+00  0.00000000E+00
  0.00000000E+00  0.00000000E+00  0.00000000E+00
  0.00000000E+00  0.00000000E+00  0.00000000E+00
  0.00000000E+00  0.00000000E+00  0.00000000E+00
  0.00000000E+00  0.00000000E+00  0.00000000E+00
  0.00000000E+00  0.00000000E+00  0.00000000E+00
  0.00000000E+00  0.00000000E+00  0.00000000E+00
  0.00000000E+00  0.00000000E+00  0.00000000E+00
  0.00000000E+00  0.00000000E+00  0.00000000E+00
  0.00000000E+00  0.00000000E+00  0.00000000E+00
  0.00000000E+00  0.00000000E+00  0.00000000E+00
  0.00000000E+00  0.00000000E+00  0.00000000E+00
  0.00000000E+00  0.00000000E+00  0.00000000E+00
  0.00000000E+00  0.00000000E+00  0.00000000E+00
  0.00000000E+00  0.00000000E+00  0.00000000E+00
  0.00000000E+00  0.00000000E+00  0.00000000E+00
  0.00000000E+00  0.00000000E+00  0.00000000E+00
  0.00000000E+00  0.00000000E+00  0.00000000E+00
  0.00000000E+00  0.00000000E+00  0.00000000E+00
  0.00000000E+00  0.00000000E+00  0.00000000E+00
  0.00000000E+00  0.00000000E+00  0.00000000E+00
  0.00000000E+00  0.00000000E+00  0.00000000E+00
  0.00000000E+00  0.00000000E+00  0.00000000E+00
  0.00000000E+00  0.00000000E+00  0.00000000E+00
  0.00000000E+00  0.00000000E+00  0.00000000E+00
  0.00000000E+00  0.00000000E+00  0.00000000E+00
  0.00000000E+00  0.00000000E+00  0.00000000E+00
  0.00000000E+00  0.00000000E+00  0.00000000E+00
  0.00000000E+00  0.00000000E+00  0.00000000E+00
  0.00000000E+00  0.00000000E+00  0.00000000E+00
  0.00000000E+00  0.00000000E+00  0.00000000E+00
  0.00000000E+00  0.00000000E+00  0.00000000E+00
  0.00000000E+00  0.00000000E+00  0.00000000E+00
  0.00000000E+00  0.00000000E+00  0.00000000E+00
  0.00000000E+00  0.00000000E+00  0.00000000E+00
  0.00000000E+00  0.00000000E+00  0.00000000E+00
  0.00000000E+00  0.00000000E+00  0.00000000E+00
  0.00000000E+00  0.00000000E+00  0.00000000E+00
  0.00000000E+00  0.00000000E+00  0.00000000E+00
  0.00000000E+00  0.00000000E+00  0.00000000E+00
  0.00000000E+00  0.00000000E+00  0.00000000E+00
  0.00000000E+00  0.00000000E+00  0.00000000E+00
  0.00000000E+00  0.00000000E+00  0.00000000E+00
  0.00000000E+00  0.00000000E+00  0.00000000E+00
  0.00000000E+00  0.00000000E+00  0.00000000E+00
  0.00000000E+00  0.00000000E+00  0.00000000E+00
  0.00000000E+00  0.00000000E+00  0.00000000E+00
  0.00000000E+00  0.00000000E+00  0.00000000E+00
  0.00000000E+00  0.00000000E+00  0.00000000E+00
  0.00000000E+00  0.00000000E+00  0.00000000E+00
  0.00000000E+00  0.00000000E+00  0.00000000E+00
  0.00000000E+00  0.00000000E+00  0.00000000E+00
  0.00000000E+00  0.00000000E+00  0.00000000E+00
  0.00000000E+00  0.00000000E+00  0.00000000E+00
  0.00000000E+00  0.00000000E+00  0.00000000E+00
  0.00000000E+00  0.00000000E+00  0.00000000E+00
  0.00000000E+00  0.00000000E+00  0.00000000E+00
  0.00000000E+00  0.00000000E+00  0.00000000E+00
  0.00000000E+00  0.00000000E+00  0.00000000E+00
  0.00000000E+00  0.00000000E+00  0.00000000E+00
  0.00000000E+00  0.00000000E+00  0.00000000E+00
  0.00000000E+00  0.00000000E+00  0.00000000E+00
  0.00000000E+00  0.00000000E+00  0.00000000E+00
