PtM\(2)                                 
   1.00000000000000     
    10.5600004195999997    0.0000000000000000    0.0000000000000000
     5.2800002097999998    9.1452286273999999    0.0000000000000000
     0.0000000000000000    0.0000000000000000   22.0000000000000000
   Ni   Pt   H 
    64    16     2
Selective dynamics
Direct
  0.7860748044418600  0.8684261040456818  0.3112142825272741   F   F   F
  0.0359771631770158  0.8684402229272550  0.3112191934454529   F   F   F
  0.0360638410776062  0.6185004528649074  0.3112749214818180   F   F   F
  0.7874164227977971  0.8671974162722194  0.0507952848136384   F   F   F
  0.0371812071091995  0.8676186467801656  0.0508907119909097   F   F   F
  0.0374684841738073  0.6171956253437827  0.0509625431272696   F   F   F
  0.6195540567074858  0.2015927253995997  0.1375472916636369   F   F   F
  0.3695075232167966  0.9518242491084408  0.1375177793318159   F   F   F
  0.0365250867966509  0.3679971185976569  0.3113240995227287   F   F   F
  0.0370441529486243  0.3679087439453710  0.0510122538363618   F   F   F
  0.8696832728241688  0.2017788834137235  0.1375957440090900   F   F   F
  0.9527813306805157  0.5350180629317975  0.2253724315499994   F   F   F
  0.2862506488321657  0.1183617554903833  0.3113075422409111   F   F   F
  0.5362377007248043  0.6185479854108635  0.3111095131772714   F   F   F
  0.2861490503140089  0.3679787114799282  0.3112694494136363   F   F   F
  0.2865437969577087  0.1185517643978500  0.0509036111818162   F   F   F
  0.5363140996786200  0.6178282872416645  0.0507770374954575   F   F   F
  0.2861704337189792  0.3683748117358761  0.0510002003863619   F   F   F
  0.6196234901564495  0.9517335769848856  0.1373589130318180   F   F   F
  0.7026101491842240  0.7851079801863037  0.2251070945272744   F   F   F
  0.8696404260012258  0.7014772441204471  0.1376145676590923   F   F   F
  0.6196299646022467  0.4516165522451487  0.1375203790909083   F   F   F
  0.2862220114965410  0.8684458986738264  0.3112261903045450   F   F   F
  0.2865937880566349  0.8680734555957201  0.0508346510318205   F   F   F
  0.6194335686725978  0.7016555716469099  0.1373394372999996   F   F   F
  0.2029677756116826  0.0350673192837547  0.2252949570181784   F   F   F
  0.5361933456582975  0.3683842538398920  0.3111211953999984   F   F   F
  0.5363670832523084  0.3680933396912849  0.0508732332090887   F   F   F
  0.5363155012356842  0.1181086287185664  0.3112292449818170   F   F   F
  0.5357740562855895  0.1186998764413190  0.0508076041818200   F   F   F
  0.8695889210879457  0.4517664038733358  0.1377370143909076   F   F   F
  0.1194625732134043  0.4516968078549155  0.1379299702136336   F   F   F
  0.0362440784199194  0.1182475204676692  0.3112637321727263   F   F   F
  0.0372294765921879  0.1183068973757955  0.0509084329409077   F   F   F
  0.1194236500933172  0.9519185222901285  0.1376218898500028   F   F   F
  0.4528536439440529  0.5352275608982353  0.2251461817636340   F   F   F
  0.3693977441760410  0.2019043691557201  0.1377741168545441   F   F   F
  0.1196225089457670  0.2018141881625866  0.1378220913363606   F   F   F
  0.9526396543568154  0.7851309845537813  0.2252012023272698   F   F   F
  0.7861645339815411  0.6185239652677978  0.3112078423363656   F   F   F
  0.2863280156540071  0.6181847831733549  0.3112256355954557   F   F   F
  0.7873265514095209  0.6175143423293008  0.0508263513318212   F   F   F
  0.2865996923037599  0.6174998734400674  0.0509254706590880   F   F   F
  0.3692545354116845  0.7017889581208507  0.1375475984363632   F   F   F
  0.3695484132066582  0.4516338335080263  0.1377474529818201   F   F   F
  0.2029608823231825  0.2849730925033143  0.2253030894545489   F   F   F
  0.7863391730685407  0.3682918270417872  0.3111967875454553   F   F   F
  0.7871940568885378  0.3681532496423969  0.0508772485772724   F   F   F
  0.9528454641969191  0.0351631979146489  0.2251830937863630   F   F   F
  0.4528360326258465  0.7850807395551342  0.2251244808545465   F   F   F
  0.7027629872711643  0.5351707167534698  0.2251702027318174   F   F   F
  0.2029130402376111  0.7850996167868658  0.2252615398727258   F   F   F
  0.4528305550773482  0.0349675152725979  0.2252004435045478   F   F   F
  0.1194697833192677  0.7016886593380178  0.1377196208045461   F   F   F
  0.7026459223273420  0.0350792498548174  0.2251135579772736   F   F   F
  0.7861716611457297  0.1181407294578634  0.3111734087818192   F   F   F
  0.5362698893680999  0.8683889330996237  0.3112060906545437   F   F   F
  0.7868336547289516  0.1183080422132221  0.0508386848136340   F   F   F
  0.5365155299928688  0.8682561142222056  0.0507168413227248   F   F   F
  0.2029194842957338  0.5350474281134652  0.2253659777454544   F   F   F
  0.9528443475199992  0.2851192916585745  0.2253313028954551   F   F   F
  0.8694806842594929  0.9517801275761713  0.1375034099181818   F   F   F
  0.7029096491427964  0.2851628957734889  0.2251736580090906   F   F   F
  0.4529083982914273  0.2850542595829140  0.2252679912136344   F   F   F
  0.8695566650012339  0.9514921602647632  0.4085482553363633   F   F   F
  0.1196443918263839  0.4514108106637522  0.4085970728454527   F   F   F
  0.1195604291390708  0.9515227833701445  0.4085433075636331   F   F   F
  0.8697340785560215  0.4514690806230632  0.4084618522727297   F   F   F
  0.3696170760841468  0.9515447259708409  0.4085581436954513   F   F   F
  0.8696855819015923  0.2013647638925704  0.4085196822227246   F   F   F
  0.1197196140922330  0.2014107862302481  0.4086335422863669   F   F   F
  0.6197054189861362  0.9514766012989071  0.4086118844000026   F   F   F
  0.8696118005095244  0.7015677281896515  0.4085872442863661   F   F   F
  0.3695793055486547  0.2014191952600441  0.4086250099409057   F   F   F
  0.3696500265253206  0.7014108771082377  0.4082154989727300   F   F   F
  0.6196618541850114  0.4514342258684181  0.4081164879045431   F   F   F
  0.1195889908117636  0.7015206675509802  0.4085100754454558   F   F   F
  0.6196901723477595  0.2013863236050781  0.4084492601136347   F   F   F
  0.3696063941341947  0.4514258455202480  0.4083668403909115   F   F   F
  0.6197182363909235  0.7014804097930849  0.4083657919727273   F   F   F
  0.4730477290266037  0.5543478785769054  0.5480781345227257   T   T   T
  0.5153288478640191  0.5943570901567838  0.5485811102727276   T   T   T
 
  0.00000000E+00  0.00000000E+00  0.00000000E+00
  0.00000000E+00  0.00000000E+00  0.00000000E+00
  0.00000000E+00  0.00000000E+00  0.00000000E+00
  0.00000000E+00  0.00000000E+00  0.00000000E+00
  0.00000000E+00  0.00000000E+00  0.00000000E+00
  0.00000000E+00  0.00000000E+00  0.00000000E+00
  0.00000000E+00  0.00000000E+00  0.00000000E+00
  0.00000000E+00  0.00000000E+00  0.00000000E+00
  0.00000000E+00  0.00000000E+00  0.00000000E+00
  0.00000000E+00  0.00000000E+00  0.00000000E+00
  0.00000000E+00  0.00000000E+00  0.00000000E+00
  0.00000000E+00  0.00000000E+00  0.00000000E+00
  0.00000000E+00  0.00000000E+00  0.00000000E+00
  0.00000000E+00  0.00000000E+00  0.00000000E+00
  0.00000000E+00  0.00000000E+00  0.00000000E+00
  0.00000000E+00  0.00000000E+00  0.00000000E+00
  0.00000000E+00  0.00000000E+00  0.00000000E+00
  0.00000000E+00  0.00000000E+00  0.00000000E+00
  0.00000000E+00  0.00000000E+00  0.00000000E+00
  0.00000000E+00  0.00000000E+00  0.00000000E+00
  0.00000000E+00  0.00000000E+00  0.00000000E+00
  0.00000000E+00  0.00000000E+00  0.00000000E+00
  0.00000000E+00  0.00000000E+00  0.00000000E+00
  0.00000000E+00  0.00000000E+00  0.00000000E+00
  0.00000000E+00  0.00000000E+00  0.00000000E+00
  0.00000000E+00  0.00000000E+00  0.00000000E+00
  0.00000000E+00  0.00000000E+00  0.00000000E+00
  0.00000000E+00  0.00000000E+00  0.00000000E+00
  0.00000000E+00  0.00000000E+00  0.00000000E+00
  0.00000000E+00  0.00000000E+00  0.00000000E+00
  0.00000000E+00  0.00000000E+00  0.00000000E+00
  0.00000000E+00  0.00000000E+00  0.00000000E+00
  0.00000000E+00  0.00000000E+00  0.00000000E+00
  0.00000000E+00  0.00000000E+00  0.00000000E+00
  0.00000000E+00  0.00000000E+00  0.00000000E+00
  0.00000000E+00  0.00000000E+00  0.00000000E+00
  0.00000000E+00  0.00000000E+00  0.00000000E+00
  0.00000000E+00  0.00000000E+00  0.00000000E+00
  0.00000000E+00  0.00000000E+00  0.00000000E+00
  0.00000000E+00  0.00000000E+00  0.00000000E+00
  0.00000000E+00  0.00000000E+00  0.00000000E+00
  0.00000000E+00  0.00000000E+00  0.00000000E+00
  0.00000000E+00  0.00000000E+00  0.00000000E+00
  0.00000000E+00  0.00000000E+00  0.00000000E+00
  0.00000000E+00  0.00000000E+00  0.00000000E+00
  0.00000000E+00  0.00000000E+00  0.00000000E+00
  0.00000000E+00  0.00000000E+00  0.00000000E+00
  0.00000000E+00  0.00000000E+00  0.00000000E+00
  0.00000000E+00  0.00000000E+00  0.00000000E+00
  0.00000000E+00  0.00000000E+00  0.00000000E+00
  0.00000000E+00  0.00000000E+00  0.00000000E+00
  0.00000000E+00  0.00000000E+00  0.00000000E+00
  0.00000000E+00  0.00000000E+00  0.00000000E+00
  0.00000000E+00  0.00000000E+00  0.00000000E+00
  0.00000000E+00  0.00000000E+00  0.00000000E+00
  0.00000000E+00  0.00000000E+00  0.00000000E+00
  0.00000000E+00  0.00000000E+00  0.00000000E+00
  0.00000000E+00  0.00000000E+00  0.00000000E+00
  0.00000000E+00  0.00000000E+00  0.00000000E+00
  0.00000000E+00  0.00000000E+00  0.00000000E+00
  0.00000000E+00  0.00000000E+00  0.00000000E+00
  0.00000000E+00  0.00000000E+00  0.00000000E+00
  0.00000000E+00  0.00000000E+00  0.00000000E+00
  0.00000000E+00  0.00000000E+00  0.00000000E+00
  0.00000000E+00  0.00000000E+00  0.00000000E+00
  0.00000000E+00  0.00000000E+00  0.00000000E+00
  0.00000000E+00  0.00000000E+00  0.00000000E+00
  0.00000000E+00  0.00000000E+00  0.00000000E+00
  0.00000000E+00  0.00000000E+00  0.00000000E+00
  0.00000000E+00  0.00000000E+00  0.00000000E+00
  0.00000000E+00  0.00000000E+00  0.00000000E+00
  0.00000000E+00  0.00000000E+00  0.00000000E+00
  0.00000000E+00  0.00000000E+00  0.00000000E+00
  0.00000000E+00  0.00000000E+00  0.00000000E+00
  0.00000000E+00  0.00000000E+00  0.00000000E+00
  0.00000000E+00  0.00000000E+00  0.00000000E+00
  0.00000000E+00  0.00000000E+00  0.00000000E+00
  0.00000000E+00  0.00000000E+00  0.00000000E+00
  0.00000000E+00  0.00000000E+00  0.00000000E+00
  0.00000000E+00  0.00000000E+00  0.00000000E+00
  0.00000000E+00  0.00000000E+00  0.00000000E+00
  0.00000000E+00  0.00000000E+00  0.00000000E+00
