11.26                                   
   1.00000000000000     
    11.2227001190000006    0.0000000000000000    0.0000000000000000
     5.6113500595000003    9.7191434021000003    0.0000000000000000
     0.0000000000000000    0.0000000000000000   22.0000000000000000
   Pt   Co   Ni   H 
    32    23    25     1
Selective dynamics
Direct
  0.7889553464154612  0.8784727448358775  0.3014671756804388   T   T   T
  0.0322264767580065  0.8782239663210996  0.2918191761409110   T   T   T
  0.2749626531682968  0.3616708525285378  0.3114157348741355   T   T   T
  0.8758767205213632  0.9662205873155728  0.3991904265444346   T   T   T
  0.1184638423995495  0.4599525336032578  0.4134343344860066   T   T   T
  0.1284151781118412  0.9524010330723222  0.3973720824016349   T   T   T
  0.8732434522320385  0.4540179412246237  0.4122536827886799   T   T   T
  0.3749572128538279  0.9524469516347984  0.4151778860576570   T   T   T
  0.8623397970684898  0.2139782581246409  0.3966580737205908   T   T   T
  0.1287522312151368  0.2114624032794428  0.4132405350185241   T   T   T
  0.6292762983186064  0.9512081522573996  0.4094911653143187   T   T   T
  0.8746266962908190  0.7134431473031027  0.4081481995685839   T   T   T
  0.3784502567448487  0.1977791510187674  0.4136804071120952   T   T   T
  0.3746584942607638  0.7003161782220136  0.4005314102720725   T   T   T
  0.6184643907539373  0.4599752944580104  0.3992956580101272   T   T   T
  0.1160630037025987  0.7172208345922769  0.4022502822832966   T   T   T
  0.6272014766269832  0.1992994742945013  0.4042382095801518   T   T   T
  0.5386271908103513  0.3469782946324665  0.3007047853111712   T   T   T
  0.5269477268364219  0.1132697677038729  0.3083939447627541   T   T   T
  0.5456924111831540  0.1264773896570333  0.0668330444500000   F   F   F
  0.1179165896219203  0.4079249947421673  0.1190886190954572   F   F   F
  0.0533799826841357  0.1477649245453171  0.3105243359984881   T   T   T
  0.0089289541086117  0.1017685166149818  0.0491765075181831   F   F   F
  0.1378320738526071  0.9269114493519552  0.1419736841636379   F   F   F
  0.3811888550306800  0.4462687723526512  0.4055206417409418   T   T   T
  0.4797971570719426  0.5539988047029567  0.2297174711863619   F   F   F
  0.6277658756239575  0.7069478748079492  0.4134926673459787   T   T   T
  0.9525234537930558  0.7589897745830285  0.2042040527636360   F   F   F
  0.7966596732161731  0.6309108403645151  0.3105978652870510   T   T   T
  0.2733867947347209  0.6064303974050727  0.3027281275638246   T   T   T
  0.1874902960314415  0.2619820637330932  0.2253988999272707   F   F   F
  0.7108920581928047  0.5610073442297292  0.2141021541772758   F   F   F
  0.0420434170393951  0.6066790968522306  0.3056641891647673   T   T   T
  0.7819683701955427  0.8836707209448420  0.0801259714954554   F   F   F
  0.0016786040756998  0.8657086972172863  0.0717220294954544   F   F   F
  0.0064947452574984  0.6568619922019678  0.0936782229045434   F   F   F
  0.6278902107001798  0.2337904024246669  0.1497297419681800   F   F   F
  0.3605011249257544  0.9423524271924038  0.1347041508181803   F   F   F
  0.0217811309746723  0.3950236186445372  0.3157363613091672   T   T   T
  0.0129609727070417  0.3213949785765138  0.0444243323545450   F   F   F
  0.8442397035971254  0.2276131851930501  0.1389197702363631   F   F   F
  0.9674460336454942  0.5204864880486255  0.2188500749409101   F   F   F
  0.3026999391246146  0.0992335871175153  0.3193437057203596   T   T   T
  0.5515272272243685  0.6485720840757520  0.3170142937503795   T   T   T
  0.2508545359252849  0.0912810139428828  0.0487872830227261   F   F   F
  0.5291378415644843  0.6116220387812774  0.0469794814590898   F   F   F
  0.3338924189020531  0.3612659424843301  0.0722196333181842   F   F   F
  0.5814733168765329  0.9365131401840756  0.1369430198363659   F   F   F
  0.6773266661753325  0.8092123915571250  0.2230530417863648   F   F   F
  0.8097944659668883  0.6790648121082299  0.1402434814090938   F   F   F
  0.6293781667954050  0.4536695041506746  0.1332572430909096   F   F   F
  0.3215999955191370  0.8725433879786694  0.3163108366777663   T   T   T
  0.2991981285917618  0.8498356801809663  0.0500064375045426   F   F   F
  0.5810344788006034  0.7261254454662236  0.1239217899045428   F   F   F
  0.2290723421035281  0.0129455240441061  0.2296757311181850   F   F   F
  0.5487186473537591  0.3606903691062442  0.0554524207318181   F   F   F
  0.3441165493717691  0.1669096226370641  0.1316441221863656   F   F   F
  0.1755439985883172  0.6842061655827791  0.1476189425363614   F   F   F
  0.6608263512248982  0.0424903716114287  0.2130448247909058   F   F   F
  0.7846378556257557  0.1160683701955428  0.2965433634361613   T   T   T
  0.5365832153320808  0.8745026566042996  0.3158836353967195   T   T   T
  0.7728439665680398  0.1227826303336741  0.0604845839136345   F   F   F
  0.5003074210799383  0.8984495284649512  0.0445551465727263   F   F   F
  0.1957150797376812  0.5052286738087446  0.2143863590590911   F   F   F
  0.9354617673556689  0.3154204577882496  0.2255271175500013   F   F   F
  0.8582446837676017  0.0019510069473725  0.1561197289090899   F   F   F
  0.7210428981411425  0.3149762791995201  0.2296972617681803   F   F   F
  0.4300228872279135  0.2657770050025050  0.2137706572090892   F   F   F
  0.8770375531629568  0.4295574328801379  0.1287836487363663   F   F   F
  0.0963481931919432  0.1806982179952712  0.1396927366863636   F   F   F
  0.7598886996324694  0.5886779948286147  0.0515561146681804   F   F   F
  0.3152737423209686  0.5915166876494311  0.0592523364318183   F   F   F
  0.3817921641394761  0.7012659040432894  0.1364658375045451   F   F   F
  0.4004265753919469  0.4537703161625402  0.1488472664727283   F   F   F
  0.7896401262582315  0.4017829432644272  0.3135953378842770   T   T   T
  0.7808992644723389  0.3514802091058655  0.0459807957863632   F   F   F
  0.9695440421590007  0.0843031522842779  0.2219682032818184   F   F   F
  0.4648689818808052  0.7946388815429231  0.2253314380545461   F   F   F
  0.2489049567848340  0.7859896227119592  0.2326762259318187   F   F   F
  0.4386220550658777  0.0277131730808478  0.2245019522090885   F   F   F
  0.1160148370246336  0.5994367705230318  0.4527180043874424   T   T   T
 
  0.00000000E+00  0.00000000E+00  0.00000000E+00
  0.00000000E+00  0.00000000E+00  0.00000000E+00
  0.00000000E+00  0.00000000E+00  0.00000000E+00
  0.00000000E+00  0.00000000E+00  0.00000000E+00
  0.00000000E+00  0.00000000E+00  0.00000000E+00
  0.00000000E+00  0.00000000E+00  0.00000000E+00
  0.00000000E+00  0.00000000E+00  0.00000000E+00
  0.00000000E+00  0.00000000E+00  0.00000000E+00
  0.00000000E+00  0.00000000E+00  0.00000000E+00
  0.00000000E+00  0.00000000E+00  0.00000000E+00
  0.00000000E+00  0.00000000E+00  0.00000000E+00
  0.00000000E+00  0.00000000E+00  0.00000000E+00
  0.00000000E+00  0.00000000E+00  0.00000000E+00
  0.00000000E+00  0.00000000E+00  0.00000000E+00
  0.00000000E+00  0.00000000E+00  0.00000000E+00
  0.00000000E+00  0.00000000E+00  0.00000000E+00
  0.00000000E+00  0.00000000E+00  0.00000000E+00
  0.00000000E+00  0.00000000E+00  0.00000000E+00
  0.00000000E+00  0.00000000E+00  0.00000000E+00
  0.00000000E+00  0.00000000E+00  0.00000000E+00
  0.00000000E+00  0.00000000E+00  0.00000000E+00
  0.00000000E+00  0.00000000E+00  0.00000000E+00
  0.00000000E+00  0.00000000E+00  0.00000000E+00
  0.00000000E+00  0.00000000E+00  0.00000000E+00
  0.00000000E+00  0.00000000E+00  0.00000000E+00
  0.00000000E+00  0.00000000E+00  0.00000000E+00
  0.00000000E+00  0.00000000E+00  0.00000000E+00
  0.00000000E+00  0.00000000E+00  0.00000000E+00
  0.00000000E+00  0.00000000E+00  0.00000000E+00
  0.00000000E+00  0.00000000E+00  0.00000000E+00
  0.00000000E+00  0.00000000E+00  0.00000000E+00
  0.00000000E+00  0.00000000E+00  0.00000000E+00
  0.00000000E+00  0.00000000E+00  0.00000000E+00
  0.00000000E+00  0.00000000E+00  0.00000000E+00
  0.00000000E+00  0.00000000E+00  0.00000000E+00
  0.00000000E+00  0.00000000E+00  0.00000000E+00
  0.00000000E+00  0.00000000E+00  0.00000000E+00
  0.00000000E+00  0.00000000E+00  0.00000000E+00
  0.00000000E+00  0.00000000E+00  0.00000000E+00
  0.00000000E+00  0.00000000E+00  0.00000000E+00
  0.00000000E+00  0.00000000E+00  0.00000000E+00
  0.00000000E+00  0.00000000E+00  0.00000000E+00
  0.00000000E+00  0.00000000E+00  0.00000000E+00
  0.00000000E+00  0.00000000E+00  0.00000000E+00
  0.00000000E+00  0.00000000E+00  0.00000000E+00
  0.00000000E+00  0.00000000E+00  0.00000000E+00
  0.00000000E+00  0.00000000E+00  0.00000000E+00
  0.00000000E+00  0.00000000E+00  0.00000000E+00
  0.00000000E+00  0.00000000E+00  0.00000000E+00
  0.00000000E+00  0.00000000E+00  0.00000000E+00
  0.00000000E+00  0.00000000E+00  0.00000000E+00
  0.00000000E+00  0.00000000E+00  0.00000000E+00
  0.00000000E+00  0.00000000E+00  0.00000000E+00
  0.00000000E+00  0.00000000E+00  0.00000000E+00
  0.00000000E+00  0.00000000E+00  0.00000000E+00
  0.00000000E+00  0.00000000E+00  0.00000000E+00
  0.00000000E+00  0.00000000E+00  0.00000000E+00
  0.00000000E+00  0.00000000E+00  0.00000000E+00
  0.00000000E+00  0.00000000E+00  0.00000000E+00
  0.00000000E+00  0.00000000E+00  0.00000000E+00
  0.00000000E+00  0.00000000E+00  0.00000000E+00
  0.00000000E+00  0.00000000E+00  0.00000000E+00
  0.00000000E+00  0.00000000E+00  0.00000000E+00
  0.00000000E+00  0.00000000E+00  0.00000000E+00
  0.00000000E+00  0.00000000E+00  0.00000000E+00
  0.00000000E+00  0.00000000E+00  0.00000000E+00
  0.00000000E+00  0.00000000E+00  0.00000000E+00
  0.00000000E+00  0.00000000E+00  0.00000000E+00
  0.00000000E+00  0.00000000E+00  0.00000000E+00
  0.00000000E+00  0.00000000E+00  0.00000000E+00
  0.00000000E+00  0.00000000E+00  0.00000000E+00
  0.00000000E+00  0.00000000E+00  0.00000000E+00
  0.00000000E+00  0.00000000E+00  0.00000000E+00
  0.00000000E+00  0.00000000E+00  0.00000000E+00
  0.00000000E+00  0.00000000E+00  0.00000000E+00
  0.00000000E+00  0.00000000E+00  0.00000000E+00
  0.00000000E+00  0.00000000E+00  0.00000000E+00
  0.00000000E+00  0.00000000E+00  0.00000000E+00
  0.00000000E+00  0.00000000E+00  0.00000000E+00
  0.00000000E+00  0.00000000E+00  0.00000000E+00
  0.00000000E+00  0.00000000E+00  0.00000000E+00
