10.36                                   
   1.00000000000000     
    10.3599996566999994    0.0000000000000000    0.0000000000000000
     5.1799998282999997    8.9720228858999995    0.0000000000000000
     0.0000000000000000    0.0000000000000000   22.0000000000000000
   Pt   Fe   Co   Cu   Ni   H 
    32    13    10    13    12     1
Selective dynamics
Direct
  0.7900601182179956  0.8748016842273414  0.3214306465701798   T   T   T
  0.0412492972099910  0.8837131920510638  0.3175876321971490   T   T   T
  0.2804609765727502  0.3798965599845934  0.3219019922959124   T   T   T
  0.8744168315615040  0.9639105984704166  0.4301206360532154   T   T   T
  0.1208064831728951  0.4662450099614373  0.4297936337805741   T   T   T
  0.1236951324603459  0.9650973637556953  0.4227966917049252   T   T   T
  0.8722876633158719  0.4634626719235150  0.4488275898626239   T   T   T
  0.3743032023115485  0.9640173414828133  0.4233316006101840   T   T   T
  0.8744433286096247  0.2166444842566945  0.4255265102296871   T   T   T
  0.1240029307311434  0.2152783553337225  0.4251929627405871   T   T   T
  0.6248629429914682  0.9642542459734849  0.4276961970284888   T   T   T
  0.8717494125864427  0.7178483962152508  0.4505917596047770   T   T   T
  0.3744065325270133  0.2129646724825572  0.4308409461021083   T   T   T
  0.3752086109802974  0.7152238775828397  0.4280407381989312   T   T   T
  0.6259622349042746  0.4646484091525842  0.4241372934892392   T   T   T
  0.1230054161135413  0.7145438709840957  0.4294097278788269   T   T   T
  0.6251831220395323  0.2140182110840674  0.4225302108810993   T   T   T
  0.5482331848143639  0.3765536335649137  0.3180893554608064   T   T   T
  0.5365020572323973  0.1236033460808744  0.3162486158531377   T   T   T
  0.5458014400089226  0.1234550493780731  0.0359400593772747   F   F   F
  0.1219383108401360  0.4607637042028472  0.1261476945818174   F   F   F
  0.0409464410811826  0.1389456954813360  0.3148919515368794   T   T   T
  0.0426177556592364  0.1297797889737780  0.0304909520954553   F   F   F
  0.1298428761067072  0.9585265795537836  0.1305436315363622   F   F   F
  0.3744657681727956  0.4648091642253581  0.4321799918197410   T   T   T
  0.4536142831861127  0.5450805790169824  0.2185534362818160   F   F   F
  0.6238481622839971  0.7149423630721458  0.4242789670189729   T   T   T
  0.9567679528542641  0.7907913211133391  0.2215395440363608   F   F   F
  0.7953291224360957  0.6202275744175419  0.3203944742229578   T   T   T
  0.2924616333828320  0.6320254333718790  0.3200368599990608   T   T   T
  0.2033968113129916  0.2831573253555248  0.2254814981590911   F   F   F
  0.7079943538448035  0.5476533912460155  0.2203153201272698   F   F   F
  0.0399967913804946  0.6306350477140775  0.3284370491944552   T   T   T
  0.7980538117324372  0.8624341141126948  0.0385159092227241   F   F   F
  0.0552849574256129  0.8673564735473107  0.0343513444545422   F   F   F
  0.0474090248444483  0.6263712164546362  0.0327916081590942   F   F   F
  0.6264571710535165  0.2185083723293815  0.1268634264227302   F   F   F
  0.3829453672912493  0.9548385219640068  0.1285988211636351   F   F   F
  0.0349103748693056  0.3842392955129139  0.3271273853524607   T   T   T
  0.0333104805050652  0.3830854889148227  0.0338960332000013   F   F   F
  0.8707331529917894  0.2156009995070320  0.1265163613454519   F   F   F
  0.9554721997300177  0.5448036240836771  0.2234071909181807   F   F   F
  0.2957875315001910  0.1169674550074451  0.3223875371103920   T   T   T
  0.5400174872720090  0.6324609436451170  0.3227020945541281   T   T   T
  0.2949796661070749  0.1207060839425580  0.0354777079681838   F   F   F
  0.5468395352815776  0.6255393754088701  0.0407606834636383   F   F   F
  0.2937150855157071  0.3805059751201867  0.0349060453818169   F   F   F
  0.6256401488194570  0.9526282026021207  0.1307260463590936   F   F   F
  0.7059268653305040  0.7956112008160545  0.2192326928636348   F   F   F
  0.8672931192344109  0.7077434861182965  0.1272654984636361   F   F   F
  0.6257430270251945  0.4611784098882126  0.1254728431772705   F   F   F
  0.2976871267089722  0.8777062746563395  0.3180146410548119   T   T   T
  0.3044523837364466  0.8674590556084283  0.0378147787681797   F   F   F
  0.6276506550672281  0.7130309952902323  0.1270004925727264   F   F   F
  0.2224885567561898  0.0301811762680160  0.2268316968727291   F   F   F
  0.5436321503495236  0.3798759509136147  0.0314790966954561   F   F   F
  0.3785322377896421  0.2050962626379231  0.1304079932181850   F   F   F
  0.1335856850995540  0.7058118501962269  0.1296243496818192   F   F   F
  0.7052232585528557  0.0495490680701067  0.2204402018590912   F   F   F
  0.7931475135449566  0.1299109357288371  0.3184337656349643   T   T   T
  0.5383023215638396  0.8738598584030730  0.3169124594644496   T   T   T
  0.7961477246739292  0.1230227477835157  0.0309807547499972   F   F   F
  0.5459767523362302  0.8695969387529416  0.0336065307954527   F   F   F
  0.2072282577882945  0.5419788292495227  0.2243820184272707   F   F   F
  0.9526128984599183  0.2947893967765651  0.2201704496772692   F   F   F
  0.8718774810604728  0.9624754198042567  0.1273033371999972   F   F   F
  0.7130345181012316  0.2886236761800518  0.2224983166227261   F   F   F
  0.4575250881556840  0.2905277095867049  0.2202344651227293   F   F   F
  0.8748423801886673  0.4570171218626697  0.1258167675954525   F   F   F
  0.1277806656162355  0.2080787861602431  0.1274778483136387   F   F   F
  0.7924830963535570  0.6234970774306987  0.0376528518590931   F   F   F
  0.2975240081599964  0.6248523074111176  0.0387144017045458   F   F   F
  0.3848216830637057  0.7097879868995918  0.1274289244681839   F   F   F
  0.3825565390611771  0.4518961651637952  0.1244171486045431   F   F   F
  0.7933310494227116  0.3788785804667165  0.3220279592822705   T   T   T
  0.7906424157987573  0.3775544735093703  0.0363354318318159   F   F   F
  0.9558869718144862  0.0511319708759288  0.2211004496863609   F   F   F
  0.4577502232223978  0.7969477794396838  0.2237495504727249   F   F   F
  0.2115698532229970  0.7984364491376823  0.2244089375772731   F   F   F
  0.4622948514299310  0.0319863000740881  0.2214779897681822   F   F   F
  0.8758829247978432  0.5880498317785474  0.5021941870050879   T   T   T
 
  0.00000000E+00  0.00000000E+00  0.00000000E+00
  0.00000000E+00  0.00000000E+00  0.00000000E+00
  0.00000000E+00  0.00000000E+00  0.00000000E+00
  0.00000000E+00  0.00000000E+00  0.00000000E+00
  0.00000000E+00  0.00000000E+00  0.00000000E+00
  0.00000000E+00  0.00000000E+00  0.00000000E+00
  0.00000000E+00  0.00000000E+00  0.00000000E+00
  0.00000000E+00  0.00000000E+00  0.00000000E+00
  0.00000000E+00  0.00000000E+00  0.00000000E+00
  0.00000000E+00  0.00000000E+00  0.00000000E+00
  0.00000000E+00  0.00000000E+00  0.00000000E+00
  0.00000000E+00  0.00000000E+00  0.00000000E+00
  0.00000000E+00  0.00000000E+00  0.00000000E+00
  0.00000000E+00  0.00000000E+00  0.00000000E+00
  0.00000000E+00  0.00000000E+00  0.00000000E+00
  0.00000000E+00  0.00000000E+00  0.00000000E+00
  0.00000000E+00  0.00000000E+00  0.00000000E+00
  0.00000000E+00  0.00000000E+00  0.00000000E+00
  0.00000000E+00  0.00000000E+00  0.00000000E+00
  0.00000000E+00  0.00000000E+00  0.00000000E+00
  0.00000000E+00  0.00000000E+00  0.00000000E+00
  0.00000000E+00  0.00000000E+00  0.00000000E+00
  0.00000000E+00  0.00000000E+00  0.00000000E+00
  0.00000000E+00  0.00000000E+00  0.00000000E+00
  0.00000000E+00  0.00000000E+00  0.00000000E+00
  0.00000000E+00  0.00000000E+00  0.00000000E+00
  0.00000000E+00  0.00000000E+00  0.00000000E+00
  0.00000000E+00  0.00000000E+00  0.00000000E+00
  0.00000000E+00  0.00000000E+00  0.00000000E+00
  0.00000000E+00  0.00000000E+00  0.00000000E+00
  0.00000000E+00  0.00000000E+00  0.00000000E+00
  0.00000000E+00  0.00000000E+00  0.00000000E+00
  0.00000000E+00  0.00000000E+00  0.00000000E+00
  0.00000000E+00  0.00000000E+00  0.00000000E+00
  0.00000000E+00  0.00000000E+00  0.00000000E+00
  0.00000000E+00  0.00000000E+00  0.00000000E+00
  0.00000000E+00  0.00000000E+00  0.00000000E+00
  0.00000000E+00  0.00000000E+00  0.00000000E+00
  0.00000000E+00  0.00000000E+00  0.00000000E+00
  0.00000000E+00  0.00000000E+00  0.00000000E+00
  0.00000000E+00  0.00000000E+00  0.00000000E+00
  0.00000000E+00  0.00000000E+00  0.00000000E+00
  0.00000000E+00  0.00000000E+00  0.00000000E+00
  0.00000000E+00  0.00000000E+00  0.00000000E+00
  0.00000000E+00  0.00000000E+00  0.00000000E+00
  0.00000000E+00  0.00000000E+00  0.00000000E+00
  0.00000000E+00  0.00000000E+00  0.00000000E+00
  0.00000000E+00  0.00000000E+00  0.00000000E+00
  0.00000000E+00  0.00000000E+00  0.00000000E+00
  0.00000000E+00  0.00000000E+00  0.00000000E+00
  0.00000000E+00  0.00000000E+00  0.00000000E+00
  0.00000000E+00  0.00000000E+00  0.00000000E+00
  0.00000000E+00  0.00000000E+00  0.00000000E+00
  0.00000000E+00  0.00000000E+00  0.00000000E+00
  0.00000000E+00  0.00000000E+00  0.00000000E+00
  0.00000000E+00  0.00000000E+00  0.00000000E+00
  0.00000000E+00  0.00000000E+00  0.00000000E+00
  0.00000000E+00  0.00000000E+00  0.00000000E+00
  0.00000000E+00  0.00000000E+00  0.00000000E+00
  0.00000000E+00  0.00000000E+00  0.00000000E+00
  0.00000000E+00  0.00000000E+00  0.00000000E+00
  0.00000000E+00  0.00000000E+00  0.00000000E+00
  0.00000000E+00  0.00000000E+00  0.00000000E+00
  0.00000000E+00  0.00000000E+00  0.00000000E+00
  0.00000000E+00  0.00000000E+00  0.00000000E+00
  0.00000000E+00  0.00000000E+00  0.00000000E+00
  0.00000000E+00  0.00000000E+00  0.00000000E+00
  0.00000000E+00  0.00000000E+00  0.00000000E+00
  0.00000000E+00  0.00000000E+00  0.00000000E+00
  0.00000000E+00  0.00000000E+00  0.00000000E+00
  0.00000000E+00  0.00000000E+00  0.00000000E+00
  0.00000000E+00  0.00000000E+00  0.00000000E+00
  0.00000000E+00  0.00000000E+00  0.00000000E+00
  0.00000000E+00  0.00000000E+00  0.00000000E+00
  0.00000000E+00  0.00000000E+00  0.00000000E+00
  0.00000000E+00  0.00000000E+00  0.00000000E+00
  0.00000000E+00  0.00000000E+00  0.00000000E+00
  0.00000000E+00  0.00000000E+00  0.00000000E+00
  0.00000000E+00  0.00000000E+00  0.00000000E+00
  0.00000000E+00  0.00000000E+00  0.00000000E+00
  0.00000000E+00  0.00000000E+00  0.00000000E+00
