Pt   Fe   Co   Cu   Ni   H              
   1.00000000000000     
    10.5600004195999997    0.0000000000000000    0.0000000000000000
     5.2800002097999998    9.1452286273999999    0.0000000000000000
     0.0000000000000000    0.0000000000000000   22.0000000000000000
   Pt   Fe   Co   Cu   Ni   H 
    32    13    10    13    12     2
Selective dynamics
Direct
  0.7872022138880768  0.8792761228913173  0.3173313540121310   T   T   T
  0.0430725451676493  0.8834009211669160  0.3164267844086803   T   T   T
  0.2801219511817005  0.3791278091022863  0.3198121996508193   T   T   T
  0.8723368577148917  0.9599178756766763  0.4234945536663778   T   T   T
  0.1203121114825840  0.4637224891780454  0.4269149270532282   T   T   T
  0.1245532877254476  0.9578421139695450  0.4273148573145733   T   T   T
  0.8727400116632125  0.4609683177283103  0.4257120857916271   T   T   T
  0.3769790128113062  0.9554396062367995  0.4193563310878258   T   T   T
  0.8720874203341806  0.2124155736096584  0.4259706576484613   T   T   T
  0.1243600635763930  0.2111070162107359  0.4244082054681801   T   T   T
  0.6261497853157335  0.9588428245567449  0.4233081556740298   T   T   T
  0.8736985158840047  0.7095917555415059  0.4275203487249822   T   T   T
  0.3759335324671352  0.2079945985635709  0.4297322959197947   T   T   T
  0.3742735090193664  0.7118803543452504  0.4232527018638597   T   T   T
  0.6254400670067447  0.4602138594797843  0.4220425905347868   T   T   T
  0.1244682181324594  0.7084049871317495  0.4267705867435460   T   T   T
  0.6231636679645772  0.2101760831469749  0.4217732158684324   T   T   T
  0.5486453912459748  0.3746886555636911  0.3168553439667160   T   T   T
  0.5333923787283713  0.1245248988955703  0.3156530414741469   T   T   T
  0.5470002567308043  0.1235332521939583  0.0399417999772709   F   F   F
  0.1208089481832886  0.4601783015999317  0.1280394984818187   F   F   F
  0.0423881865251410  0.1368380135635163  0.3153462554676356   T   T   T
  0.0424414900706935  0.1302099981111695  0.0329802953681835   F   F   F
  0.1304832192178935  0.9579853651937356  0.1318324513636355   F   F   F
  0.3745314303909047  0.4613965392555051  0.4257226604802425   T   T   T
  0.4545409546936767  0.5457192756283078  0.2188518203000029   F   F   F
  0.6227779728800483  0.7101847659965737  0.4232574339588080   T   T   T
  0.9557150112739734  0.7901309279847197  0.2210448635636340   F   F   F
  0.7940038273602543  0.6229458413555378  0.3188107250741977   T   T   T
  0.2909479626761136  0.6308132913901477  0.3181708453183497   T   T   T
  0.2026302282546482  0.2805717472619946  0.2254649220954548   F   F   F
  0.7064516142104935  0.5493905794598390  0.2207507679909071   F   F   F
  0.0402692805711009  0.6306484957307904  0.3254549544884845   T   T   T
  0.7973180911857654  0.8616265572072663  0.0420760910772700   F   F   F
  0.0560985910286504  0.8657185943694543  0.0377408024136372   F   F   F
  0.0464128728304587  0.6281990126400245  0.0369911384090926   F   F   F
  0.6273755757405439  0.2222416784103771  0.1287505962318178   F   F   F
  0.3821141315863983  0.9550040284758836  0.1298830475227248   F   F   F
  0.0355541979028661  0.3834406578183763  0.3240874697171782   T   T   T
  0.0311405267529068  0.3816759960316460  0.0375046088681827   F   F   F
  0.8722404389362310  0.2153943248393162  0.1282949969590916   F   F   F
  0.9547121146441953  0.5451880757537140  0.2238905465227248   F   F   F
  0.2949754083209344  0.1164574817691939  0.3220396883749219   T   T   T
  0.5399985611929694  0.6294739887718708  0.3216274391706163   T   T   T
  0.2952537777580275  0.1193869715983666  0.0394092290045478   F   F   F
  0.5482511333458362  0.6253176515966246  0.0436557828227251   F   F   F
  0.2955313611175683  0.3794825008859988  0.0388921565772762   F   F   F
  0.6254873592728032  0.9499576153264400  0.1320861515409106   F   F   F
  0.7063418941412323  0.7943482474494772  0.2201040810409083   F   F   F
  0.8657230808985474  0.7055915708183349  0.1288086150363625   F   F   F
  0.6261967559749806  0.4601083651744915  0.1271035316954539   F   F   F
  0.2981699873242350  0.8745349966478990  0.3172934971710104   T   T   T
  0.3058183792080129  0.8681273535812224  0.0402965921590877   F   F   F
  0.6267113460374674  0.7146527937769136  0.1282718373772695   F   F   F
  0.2238985663333324  0.0282395707665799  0.2273103066590920   F   F   F
  0.5426930146679965  0.3810225683434538  0.0346170130500028   F   F   F
  0.3782499856614123  0.2053095451189151  0.1325912588909119   F   F   F
  0.1361840205679030  0.7049738332493618  0.1317829863318210   F   F   F
  0.7048694108137141  0.0502839582186283  0.2203633218772723   F   F   F
  0.7936329537895422  0.1304071465085686  0.3176520031601074   T   T   T
  0.5379847339726384  0.8733265277772702  0.3165785620461548   T   T   T
  0.7965506180334998  0.1231154660613569  0.0345346489227296   F   F   F
  0.5461463374708515  0.8704875427114658  0.0358963983818157   F   F   F
  0.2072223479328272  0.5428206522718000  0.2241705479818208   F   F   F
  0.9515132437870619  0.2967218890154157  0.2212922910363631   F   F   F
  0.8718576990639662  0.9638570180181532  0.1289765751136329   F   F   F
  0.7142109858849466  0.2900443576175675  0.2233456813409092   F   F   F
  0.4576441344000983  0.2914717494993724  0.2208305283954530   F   F   F
  0.8758100826533664  0.4565068959120069  0.1279466825136382   F   F   F
  0.1276916528005785  0.2069238958586865  0.1287633622272750   F   F   F
  0.7922909547091166  0.6217683887271619  0.0402482253999992   F   F   F
  0.2978485906287958  0.6254074402977565  0.0420896375636346   F   F   F
  0.3856750788553356  0.7114654717221427  0.1289187271227306   F   F   F
  0.3820764845414715  0.4516090485180371  0.1264952625681843   F   F   F
  0.7932354520134592  0.3791642730604053  0.3207525191558721   T   T   T
  0.7909247997136220  0.3772595911558838  0.0394562840909103   F   F   F
  0.9555996101362965  0.0529344377623957  0.2214324969818193   F   F   F
  0.4575573979143996  0.7971559299412050  0.2244088666727251   F   F   F
  0.2131500369795702  0.7976872161559072  0.2245790410590942   F   F   F
  0.4623985897484246  0.0302163017414401  0.2220026953545471   F   F   F
  0.9908585776203469  0.0796069428989639  0.4778592065834605   T   T   T
  0.2739891492826026  0.1638098286194152  0.4771308032282507   T   T   T
 
  0.00000000E+00  0.00000000E+00  0.00000000E+00
  0.00000000E+00  0.00000000E+00  0.00000000E+00
  0.00000000E+00  0.00000000E+00  0.00000000E+00
  0.00000000E+00  0.00000000E+00  0.00000000E+00
  0.00000000E+00  0.00000000E+00  0.00000000E+00
  0.00000000E+00  0.00000000E+00  0.00000000E+00
  0.00000000E+00  0.00000000E+00  0.00000000E+00
  0.00000000E+00  0.00000000E+00  0.00000000E+00
  0.00000000E+00  0.00000000E+00  0.00000000E+00
  0.00000000E+00  0.00000000E+00  0.00000000E+00
  0.00000000E+00  0.00000000E+00  0.00000000E+00
  0.00000000E+00  0.00000000E+00  0.00000000E+00
  0.00000000E+00  0.00000000E+00  0.00000000E+00
  0.00000000E+00  0.00000000E+00  0.00000000E+00
  0.00000000E+00  0.00000000E+00  0.00000000E+00
  0.00000000E+00  0.00000000E+00  0.00000000E+00
  0.00000000E+00  0.00000000E+00  0.00000000E+00
  0.00000000E+00  0.00000000E+00  0.00000000E+00
  0.00000000E+00  0.00000000E+00  0.00000000E+00
  0.00000000E+00  0.00000000E+00  0.00000000E+00
  0.00000000E+00  0.00000000E+00  0.00000000E+00
  0.00000000E+00  0.00000000E+00  0.00000000E+00
  0.00000000E+00  0.00000000E+00  0.00000000E+00
  0.00000000E+00  0.00000000E+00  0.00000000E+00
  0.00000000E+00  0.00000000E+00  0.00000000E+00
  0.00000000E+00  0.00000000E+00  0.00000000E+00
  0.00000000E+00  0.00000000E+00  0.00000000E+00
  0.00000000E+00  0.00000000E+00  0.00000000E+00
  0.00000000E+00  0.00000000E+00  0.00000000E+00
  0.00000000E+00  0.00000000E+00  0.00000000E+00
  0.00000000E+00  0.00000000E+00  0.00000000E+00
  0.00000000E+00  0.00000000E+00  0.00000000E+00
  0.00000000E+00  0.00000000E+00  0.00000000E+00
  0.00000000E+00  0.00000000E+00  0.00000000E+00
  0.00000000E+00  0.00000000E+00  0.00000000E+00
  0.00000000E+00  0.00000000E+00  0.00000000E+00
  0.00000000E+00  0.00000000E+00  0.00000000E+00
  0.00000000E+00  0.00000000E+00  0.00000000E+00
  0.00000000E+00  0.00000000E+00  0.00000000E+00
  0.00000000E+00  0.00000000E+00  0.00000000E+00
  0.00000000E+00  0.00000000E+00  0.00000000E+00
  0.00000000E+00  0.00000000E+00  0.00000000E+00
  0.00000000E+00  0.00000000E+00  0.00000000E+00
  0.00000000E+00  0.00000000E+00  0.00000000E+00
  0.00000000E+00  0.00000000E+00  0.00000000E+00
  0.00000000E+00  0.00000000E+00  0.00000000E+00
  0.00000000E+00  0.00000000E+00  0.00000000E+00
  0.00000000E+00  0.00000000E+00  0.00000000E+00
  0.00000000E+00  0.00000000E+00  0.00000000E+00
  0.00000000E+00  0.00000000E+00  0.00000000E+00
  0.00000000E+00  0.00000000E+00  0.00000000E+00
  0.00000000E+00  0.00000000E+00  0.00000000E+00
  0.00000000E+00  0.00000000E+00  0.00000000E+00
  0.00000000E+00  0.00000000E+00  0.00000000E+00
  0.00000000E+00  0.00000000E+00  0.00000000E+00
  0.00000000E+00  0.00000000E+00  0.00000000E+00
  0.00000000E+00  0.00000000E+00  0.00000000E+00
  0.00000000E+00  0.00000000E+00  0.00000000E+00
  0.00000000E+00  0.00000000E+00  0.00000000E+00
  0.00000000E+00  0.00000000E+00  0.00000000E+00
  0.00000000E+00  0.00000000E+00  0.00000000E+00
  0.00000000E+00  0.00000000E+00  0.00000000E+00
  0.00000000E+00  0.00000000E+00  0.00000000E+00
  0.00000000E+00  0.00000000E+00  0.00000000E+00
  0.00000000E+00  0.00000000E+00  0.00000000E+00
  0.00000000E+00  0.00000000E+00  0.00000000E+00
  0.00000000E+00  0.00000000E+00  0.00000000E+00
  0.00000000E+00  0.00000000E+00  0.00000000E+00
  0.00000000E+00  0.00000000E+00  0.00000000E+00
  0.00000000E+00  0.00000000E+00  0.00000000E+00
  0.00000000E+00  0.00000000E+00  0.00000000E+00
  0.00000000E+00  0.00000000E+00  0.00000000E+00
  0.00000000E+00  0.00000000E+00  0.00000000E+00
  0.00000000E+00  0.00000000E+00  0.00000000E+00
  0.00000000E+00  0.00000000E+00  0.00000000E+00
  0.00000000E+00  0.00000000E+00  0.00000000E+00
  0.00000000E+00  0.00000000E+00  0.00000000E+00
  0.00000000E+00  0.00000000E+00  0.00000000E+00
  0.00000000E+00  0.00000000E+00  0.00000000E+00
  0.00000000E+00  0.00000000E+00  0.00000000E+00
  0.00000000E+00  0.00000000E+00  0.00000000E+00
  0.00000000E+00  0.00000000E+00  0.00000000E+00
