11.16                                   
   1.00000000000000     
    11.1599998474000000    0.0000000000000000    0.0000000000000000
     5.5799999237000000    9.6648433741000002    0.0000000000000000
     0.0000000000000000    0.0000000000000000   22.0000000000000000
   Pt   Fe   Co   Cu   Ni   H 
    32    13    10    13    12     1
Selective dynamics
Direct
  0.7826433237792918  0.8813353123889678  0.3068047170719035   T   T   T
  0.0371453391896479  0.8799179787853462  0.3019165548228716   T   T   T
  0.2752242926921558  0.3760798440456854  0.3140258440271735   T   T   T
  0.8711331369492188  0.9649360775247096  0.4080907947690995   T   T   T
  0.1090550445306536  0.4711873836139617  0.4146455067817422   T   T   T
  0.1188898026694249  0.9601780594238419  0.4080705035323044   T   T   T
  0.8725619854040779  0.4560551097834622  0.4169784733369566   T   T   T
  0.3669810361055260  0.9646181974497022  0.4143430251372693   T   T   T
  0.8692407445725803  0.2119022973288833  0.4087221234816534   T   T   T
  0.1243194814741434  0.2150991689273374  0.4133152896902338   T   T   T
  0.6234622657229237  0.9601118787916413  0.4119530835582274   T   T   T
  0.8680321146427327  0.7162028021078435  0.4143923192459427   T   T   T
  0.3737531980066541  0.2066345034937689  0.4151719051741398   T   T   T
  0.3682193134644043  0.7084196006829628  0.4136471616316599   T   T   T
  0.6249342985690522  0.4580688409920579  0.4140596186824408   T   T   T
  0.1154702731450349  0.7135834382770795  0.4121612463061788   T   T   T
  0.6212649147456699  0.2099893881487830  0.4119166405381138   T   T   T
  0.5411187574913201  0.3785709354354013  0.3137663284476798   T   T   T
  0.5295652485302865  0.1267284506624010  0.3103545963110819   T   T   T
  0.5479360330018892  0.1255909399993769  0.0556212010000010   F   F   F
  0.1050472610022197  0.4365478169989387  0.1244170880000013   F   F   F
  0.0481230279608258  0.1339189928546844  0.3104569131210119   T   T   T
  0.0252908159984528  0.1249324719980223  0.0404736890000024   F   F   F
  0.1302648480056590  0.9552854379970483  0.1381767990000000   F   F   F
  0.3660181376622321  0.4598980742458473  0.4143610137525829   T   T   T
  0.4550904889956513  0.5565127150030875  0.2215455449999979   F   F   F
  0.6216470595456802  0.7097148758065631  0.4163741241211110   T   T   T
  0.9509405679971650  0.7708154409997050  0.2115423250000035   F   F   F
  0.7951923316288115  0.6246504420307394  0.3161306614664941   T   T   T
  0.2788164919465030  0.6290940568135301  0.3118196323892759   T   T   T
  0.1908233009982538  0.2723671880037202  0.2256696439999999   F   F   F
  0.6991999430008917  0.5561380480002356  0.2216657290000015   F   F   F
  0.0351768316269241  0.6343758434302845  0.3153730043054902   T   T   T
  0.7946764739981020  0.8597211840045702  0.0603210109999992   F   F   F
  0.0472277110004455  0.8608318650042008  0.0526243289999968   F   F   F
  0.0485999499998186  0.6467734080048757  0.0614832309999969   F   F   F
  0.6256235380037083  0.2386853370000779  0.1339005230000012   F   F   F
  0.3812980910045098  0.9505843839973807  0.1357545959999982   F   F   F
  0.0297591566969715  0.3852517256020206  0.3200995009867395   T   T   T
  0.9912695609975515  0.3684184990045480  0.0440217040000022   F   F   F
  0.8635013100046720  0.2184212299970767  0.1330608560000002   F   F   F
  0.9518373099983606  0.5353226950024705  0.2223101310000004   F   F   F
  0.2980819140726737  0.1155951405190204  0.3190380773597302   T   T   T
  0.5388683771480586  0.6272348246043946  0.3209822454682369   T   T   T
  0.2807374070033362  0.1057206180017545  0.0521704009999979   F   F   F
  0.5389871579988039  0.6297256979983672  0.0482680530000010   F   F   F
  0.2984369150014814  0.4021714700019103  0.0563919000000013   F   F   F
  0.6229950689996713  0.9410554790027277  0.1384750280000020   F   F   F
  0.7030949789992391  0.7872524540014609  0.2202327469999972   F   F   F
  0.8492780659956765  0.6806581090004045  0.1312540879999986   F   F   F
  0.6167672719963306  0.4701632850023429  0.1300353250000015   F   F   F
  0.2982337982491154  0.8766715633127478  0.3181167386751396   T   T   T
  0.3010432329997101  0.8779877230023061  0.0477690259999974   F   F   F
  0.6085638729960010  0.7220527840007378  0.1306725419999992   F   F   F
  0.2344297509992543  0.0211869069962134  0.2284564759999981   F   F   F
  0.5345829480016135  0.3861113929999433  0.0411396889999978   F   F   F
  0.3654986089970507  0.2055446419984008  0.1382749189999970   F   F   F
  0.1632348660030445  0.7032863599957651  0.1453273950000025   F   F   F
  0.6943087199969469  0.0635364790024013  0.2192384980000028   F   F   F
  0.7871301101188743  0.1315963898502961  0.3115104104747164   T   T   T
  0.5388088125726851  0.8720675769604250  0.3170294168432882   T   T   T
  0.7846798790017004  0.1256469870018009  0.0427919030000012   F   F   F
  0.5372086529994675  0.8832323749990323  0.0436522959999976   F   F   F
  0.2017743049958654  0.5253248889998474  0.2194479380000018   F   F   F
  0.9396576839989592  0.3052585559954508  0.2247454689999984   F   F   F
  0.8650139610018002  0.9809937170019438  0.1369568650000019   F   F   F
  0.7110290679977993  0.3025694279988613  0.2258082520000002   F   F   F
  0.4534265499967844  0.2969096760005385  0.2215668939999986   F   F   F
  0.8590857100010396  0.4481114409992486  0.1318170369999976   F   F   F
  0.1134855920053752  0.1976785879965632  0.1337839910000014   F   F   F
  0.7711452319973731  0.6097180460049358  0.0462050280000028   F   F   F
  0.2956336770026624  0.6272833540010225  0.0522508780000024   F   F   F
  0.3842174690008733  0.7187581390005562  0.1329304850000028   F   F   F
  0.3925397009957408  0.4550135800011859  0.1351707090000005   F   F   F
  0.7854117625254464  0.3899462608205845  0.3183202385618086   T   T   T
  0.7750661889946855  0.3681197870039270  0.0452688499999994   F   F   F
  0.9449614759988236  0.0723766599958111  0.2217785010000028   F   F   F
  0.4633447139960225  0.7962897130049598  0.2274368460000034   F   F   F
  0.2354054279977760  0.7988368000033859  0.2276622600000024   F   F   F
  0.4587377860000856  0.0246024700035150  0.2248121169999990   F   F   F
  0.4581623067219115  0.7699489215864039  0.4572384567765309   T   T   T
 
  0.00000000E+00  0.00000000E+00  0.00000000E+00
  0.00000000E+00  0.00000000E+00  0.00000000E+00
  0.00000000E+00  0.00000000E+00  0.00000000E+00
  0.00000000E+00  0.00000000E+00  0.00000000E+00
  0.00000000E+00  0.00000000E+00  0.00000000E+00
  0.00000000E+00  0.00000000E+00  0.00000000E+00
  0.00000000E+00  0.00000000E+00  0.00000000E+00
  0.00000000E+00  0.00000000E+00  0.00000000E+00
  0.00000000E+00  0.00000000E+00  0.00000000E+00
  0.00000000E+00  0.00000000E+00  0.00000000E+00
  0.00000000E+00  0.00000000E+00  0.00000000E+00
  0.00000000E+00  0.00000000E+00  0.00000000E+00
  0.00000000E+00  0.00000000E+00  0.00000000E+00
  0.00000000E+00  0.00000000E+00  0.00000000E+00
  0.00000000E+00  0.00000000E+00  0.00000000E+00
  0.00000000E+00  0.00000000E+00  0.00000000E+00
  0.00000000E+00  0.00000000E+00  0.00000000E+00
  0.00000000E+00  0.00000000E+00  0.00000000E+00
  0.00000000E+00  0.00000000E+00  0.00000000E+00
  0.00000000E+00  0.00000000E+00  0.00000000E+00
  0.00000000E+00  0.00000000E+00  0.00000000E+00
  0.00000000E+00  0.00000000E+00  0.00000000E+00
  0.00000000E+00  0.00000000E+00  0.00000000E+00
  0.00000000E+00  0.00000000E+00  0.00000000E+00
  0.00000000E+00  0.00000000E+00  0.00000000E+00
  0.00000000E+00  0.00000000E+00  0.00000000E+00
  0.00000000E+00  0.00000000E+00  0.00000000E+00
  0.00000000E+00  0.00000000E+00  0.00000000E+00
  0.00000000E+00  0.00000000E+00  0.00000000E+00
  0.00000000E+00  0.00000000E+00  0.00000000E+00
  0.00000000E+00  0.00000000E+00  0.00000000E+00
  0.00000000E+00  0.00000000E+00  0.00000000E+00
  0.00000000E+00  0.00000000E+00  0.00000000E+00
  0.00000000E+00  0.00000000E+00  0.00000000E+00
  0.00000000E+00  0.00000000E+00  0.00000000E+00
  0.00000000E+00  0.00000000E+00  0.00000000E+00
  0.00000000E+00  0.00000000E+00  0.00000000E+00
  0.00000000E+00  0.00000000E+00  0.00000000E+00
  0.00000000E+00  0.00000000E+00  0.00000000E+00
  0.00000000E+00  0.00000000E+00  0.00000000E+00
  0.00000000E+00  0.00000000E+00  0.00000000E+00
  0.00000000E+00  0.00000000E+00  0.00000000E+00
  0.00000000E+00  0.00000000E+00  0.00000000E+00
  0.00000000E+00  0.00000000E+00  0.00000000E+00
  0.00000000E+00  0.00000000E+00  0.00000000E+00
  0.00000000E+00  0.00000000E+00  0.00000000E+00
  0.00000000E+00  0.00000000E+00  0.00000000E+00
  0.00000000E+00  0.00000000E+00  0.00000000E+00
  0.00000000E+00  0.00000000E+00  0.00000000E+00
  0.00000000E+00  0.00000000E+00  0.00000000E+00
  0.00000000E+00  0.00000000E+00  0.00000000E+00
  0.00000000E+00  0.00000000E+00  0.00000000E+00
  0.00000000E+00  0.00000000E+00  0.00000000E+00
  0.00000000E+00  0.00000000E+00  0.00000000E+00
  0.00000000E+00  0.00000000E+00  0.00000000E+00
  0.00000000E+00  0.00000000E+00  0.00000000E+00
  0.00000000E+00  0.00000000E+00  0.00000000E+00
  0.00000000E+00  0.00000000E+00  0.00000000E+00
  0.00000000E+00  0.00000000E+00  0.00000000E+00
  0.00000000E+00  0.00000000E+00  0.00000000E+00
  0.00000000E+00  0.00000000E+00  0.00000000E+00
  0.00000000E+00  0.00000000E+00  0.00000000E+00
  0.00000000E+00  0.00000000E+00  0.00000000E+00
  0.00000000E+00  0.00000000E+00  0.00000000E+00
  0.00000000E+00  0.00000000E+00  0.00000000E+00
  0.00000000E+00  0.00000000E+00  0.00000000E+00
  0.00000000E+00  0.00000000E+00  0.00000000E+00
  0.00000000E+00  0.00000000E+00  0.00000000E+00
  0.00000000E+00  0.00000000E+00  0.00000000E+00
  0.00000000E+00  0.00000000E+00  0.00000000E+00
  0.00000000E+00  0.00000000E+00  0.00000000E+00
  0.00000000E+00  0.00000000E+00  0.00000000E+00
  0.00000000E+00  0.00000000E+00  0.00000000E+00
  0.00000000E+00  0.00000000E+00  0.00000000E+00
  0.00000000E+00  0.00000000E+00  0.00000000E+00
  0.00000000E+00  0.00000000E+00  0.00000000E+00
  0.00000000E+00  0.00000000E+00  0.00000000E+00
  0.00000000E+00  0.00000000E+00  0.00000000E+00
  0.00000000E+00  0.00000000E+00  0.00000000E+00
  0.00000000E+00  0.00000000E+00  0.00000000E+00
  0.00000000E+00  0.00000000E+00  0.00000000E+00
