11.16-high                              
   1.00000000000000     
    11.1599998474000000    0.0000000000000000    0.0000000000000000
     5.5799999237000000    9.6648433741000002    0.0000000000000000
     0.0000000000000000    0.0000000000000000   22.0000000000000000
   Pt   Fe   Co   Cu   Ni
    42    10     9    10     9
Direct
  0.7752854212987291  0.8702147242730816  0.3159179554875202
  0.0366481851011233  0.8691602433024540  0.3165909706930063
  0.0358339200265949  0.6153536120035747  0.3150183582698209
  0.0274806313254588  0.3704111491108064  0.3190564775031174
  0.2894874040537740  0.1067215664815532  0.3189200824539322
  0.2865840817561738  0.3682335376552629  0.3177816810343155
  0.8629478272645303  0.6924912446823712  0.1252685060357375
  0.8677971814144664  0.9520372488702092  0.4180440230741636
  0.1153106904836335  0.4548201395859822  0.4210361578922552
  0.1232650126091254  0.9494583046994145  0.4184063071032231
  0.8684325840054764  0.4498064146001344  0.4218481744157619
  0.3714759970424522  0.9465272650674917  0.4196682579024196
  0.8667394940991485  0.2039449652574212  0.4169994392338993
  0.1180974932853461  0.2015492610170070  0.4213096944544084
  0.6181328686151217  0.9479904206841623  0.4193265297911377
  0.8670875499118428  0.7037286032425620  0.4212361400941206
  0.3711584001450203  0.1973425384649008  0.4208685685305935
  0.3722973741912851  0.7040757892658390  0.4192724997421689
  0.6210558516436148  0.4563922469868374  0.4201420569341249
  0.1175338896489582  0.7010867695920072  0.4205293126819244
  0.6182898534339075  0.2045655708769615  0.4183508463980821
  0.5408588883224141  0.3751639000185260  0.3179740177587653
  0.5319003544169549  0.1210454331922336  0.3168608297532265
  0.5428877494216541  0.1215867330743883  0.0485811050625696
  0.1155753954684679  0.4407695263906793  0.1240594223783252
  0.0381721452503721  0.1142885402404901  0.3158235169231973
  0.0252335520154560  0.1323701634937706  0.0362809042752039
  0.1146912278016205  0.9585678763751621  0.1294836408934900
  0.3668505710499124  0.4532206678897945  0.4207936172105805
  0.4556269067932776  0.5374099445355081  0.2212307736912882
  0.6171831132616543  0.7015340198319939  0.4217825177762348
  0.9436947232112988  0.7882181702357826  0.2197448358754623
  0.7779609279460009  0.6226879035388010  0.3186996592210246
  0.2899000006050775  0.6208955500312088  0.3184199687329692
  0.3790789973838574  0.7068452001395336  0.1230129188891885
  0.1987145637144718  0.2778516646070407  0.2231039790416234
  0.6947962684156053  0.5473796990140609  0.2218376521976124
  0.2098425894580556  0.7919039502892331  0.2237595690263338
  0.4554232437084558  0.0171632390207762  0.2205027207994093
  0.6884891558931769  0.0466146651058254  0.2148304586372484
  0.7840460433644454  0.1218240427920729  0.3139825776090374
  0.9442136242613877  0.2848354318845238  0.2209736752236152
  0.7819177277361465  0.8812929892043597  0.0459817344088015
  0.0391843083692609  0.8516535080781159  0.0438645143392540
  0.0499237191505577  0.6280029106088237  0.0417499028165817
  0.6200964163790773  0.2251733866852096  0.1317375500848409
  0.3710961158447604  0.9446234576969089  0.1303874934967726
 -0.0034412354188571  0.3740690799713945  0.0437370944612564
  0.8632865224560772  0.2103212997691755  0.1303680025249903
  0.9462254205206838  0.5334345687762200  0.2245740377729013
  0.5354646228627851  0.6198753258844668  0.3232652963396195
  0.2922076828264331  0.1068265544192610  0.0480181740871587
  0.5651435242274724  0.6001010543003783  0.0452614263346436
  0.3018019708313512  0.3834319634289075  0.0478189728699511
  0.6267426334010139  0.9263271675815370  0.1299528040715661
  0.6994304646831907  0.7801433193984298  0.2227281702946741
  0.6216346747464974  0.4500281085841546  0.1305092051572816
  0.2887485791520942  0.8665117194756182  0.3199541260270210
  0.2814445677242425  0.8952035899050351  0.0403365732117360
  0.6171374105485909  0.7095948552485195  0.1300503999490626
  0.2155003402462914  0.0235916964997801  0.2257534380948323
  0.5354616592128161  0.3767784441096227  0.0395060739550038
  0.3692232938622380  0.2084833176619607  0.1350612621472375
  0.1294971521377943  0.6928564725947186  0.1360327029089812
  0.5340828422864313  0.8590934364684291  0.3192258092675452
  0.7846363866660819  0.1238761766483642  0.0397628319512934
  0.5358156419630614  0.8639309702577027  0.0398531764963542
  0.2078413676549091  0.5276100468754951  0.2218898176225240
  0.8707251370804722  0.9662152991476408  0.1309477711991135
  0.7043008690334243  0.2909255952672412  0.2240870527595686
  0.4510493732053846  0.2934434864671403  0.2229979547385164
  0.8577454597730906  0.4513965051059060  0.1307770805349341
  0.1272477858433848  0.1934968126037273  0.1301603595989592
  0.7744208172256483  0.6027922181820237  0.0414490699773879
  0.2770323916894712  0.6138199637061968  0.0453495546320256
  0.3820475045960779  0.4493642646337270  0.1310920121639536
  0.7777329294146367  0.3785417074217728  0.3198376768071330
  0.7771002075204928  0.3664481880313725  0.0433885960991928
  0.9525587531094650  0.0406780860151815  0.2225367733207902
  0.4550422923180398  0.7838754348640328  0.2273551717744101
 
  0.00000000E+00  0.00000000E+00  0.00000000E+00
  0.00000000E+00  0.00000000E+00  0.00000000E+00
  0.00000000E+00  0.00000000E+00  0.00000000E+00
  0.00000000E+00  0.00000000E+00  0.00000000E+00
  0.00000000E+00  0.00000000E+00  0.00000000E+00
  0.00000000E+00  0.00000000E+00  0.00000000E+00
  0.00000000E+00  0.00000000E+00  0.00000000E+00
  0.00000000E+00  0.00000000E+00  0.00000000E+00
  0.00000000E+00  0.00000000E+00  0.00000000E+00
  0.00000000E+00  0.00000000E+00  0.00000000E+00
  0.00000000E+00  0.00000000E+00  0.00000000E+00
  0.00000000E+00  0.00000000E+00  0.00000000E+00
  0.00000000E+00  0.00000000E+00  0.00000000E+00
  0.00000000E+00  0.00000000E+00  0.00000000E+00
  0.00000000E+00  0.00000000E+00  0.00000000E+00
  0.00000000E+00  0.00000000E+00  0.00000000E+00
  0.00000000E+00  0.00000000E+00  0.00000000E+00
  0.00000000E+00  0.00000000E+00  0.00000000E+00
  0.00000000E+00  0.00000000E+00  0.00000000E+00
  0.00000000E+00  0.00000000E+00  0.00000000E+00
  0.00000000E+00  0.00000000E+00  0.00000000E+00
  0.00000000E+00  0.00000000E+00  0.00000000E+00
  0.00000000E+00  0.00000000E+00  0.00000000E+00
  0.00000000E+00  0.00000000E+00  0.00000000E+00
  0.00000000E+00  0.00000000E+00  0.00000000E+00
  0.00000000E+00  0.00000000E+00  0.00000000E+00
  0.00000000E+00  0.00000000E+00  0.00000000E+00
  0.00000000E+00  0.00000000E+00  0.00000000E+00
  0.00000000E+00  0.00000000E+00  0.00000000E+00
  0.00000000E+00  0.00000000E+00  0.00000000E+00
  0.00000000E+00  0.00000000E+00  0.00000000E+00
  0.00000000E+00  0.00000000E+00  0.00000000E+00
  0.00000000E+00  0.00000000E+00  0.00000000E+00
  0.00000000E+00  0.00000000E+00  0.00000000E+00
  0.00000000E+00  0.00000000E+00  0.00000000E+00
  0.00000000E+00  0.00000000E+00  0.00000000E+00
  0.00000000E+00  0.00000000E+00  0.00000000E+00
  0.00000000E+00  0.00000000E+00  0.00000000E+00
  0.00000000E+00  0.00000000E+00  0.00000000E+00
  0.00000000E+00  0.00000000E+00  0.00000000E+00
  0.00000000E+00  0.00000000E+00  0.00000000E+00
  0.00000000E+00  0.00000000E+00  0.00000000E+00
  0.00000000E+00  0.00000000E+00  0.00000000E+00
  0.00000000E+00  0.00000000E+00  0.00000000E+00
  0.00000000E+00  0.00000000E+00  0.00000000E+00
  0.00000000E+00  0.00000000E+00  0.00000000E+00
  0.00000000E+00  0.00000000E+00  0.00000000E+00
  0.00000000E+00  0.00000000E+00  0.00000000E+00
  0.00000000E+00  0.00000000E+00  0.00000000E+00
  0.00000000E+00  0.00000000E+00  0.00000000E+00
  0.00000000E+00  0.00000000E+00  0.00000000E+00
  0.00000000E+00  0.00000000E+00  0.00000000E+00
  0.00000000E+00  0.00000000E+00  0.00000000E+00
  0.00000000E+00  0.00000000E+00  0.00000000E+00
  0.00000000E+00  0.00000000E+00  0.00000000E+00
  0.00000000E+00  0.00000000E+00  0.00000000E+00
  0.00000000E+00  0.00000000E+00  0.00000000E+00
  0.00000000E+00  0.00000000E+00  0.00000000E+00
  0.00000000E+00  0.00000000E+00  0.00000000E+00
  0.00000000E+00  0.00000000E+00  0.00000000E+00
  0.00000000E+00  0.00000000E+00  0.00000000E+00
  0.00000000E+00  0.00000000E+00  0.00000000E+00
  0.00000000E+00  0.00000000E+00  0.00000000E+00
  0.00000000E+00  0.00000000E+00  0.00000000E+00
  0.00000000E+00  0.00000000E+00  0.00000000E+00
  0.00000000E+00  0.00000000E+00  0.00000000E+00
  0.00000000E+00  0.00000000E+00  0.00000000E+00
  0.00000000E+00  0.00000000E+00  0.00000000E+00
  0.00000000E+00  0.00000000E+00  0.00000000E+00
  0.00000000E+00  0.00000000E+00  0.00000000E+00
  0.00000000E+00  0.00000000E+00  0.00000000E+00
  0.00000000E+00  0.00000000E+00  0.00000000E+00
  0.00000000E+00  0.00000000E+00  0.00000000E+00
  0.00000000E+00  0.00000000E+00  0.00000000E+00
  0.00000000E+00  0.00000000E+00  0.00000000E+00
  0.00000000E+00  0.00000000E+00  0.00000000E+00
  0.00000000E+00  0.00000000E+00  0.00000000E+00
  0.00000000E+00  0.00000000E+00  0.00000000E+00
  0.00000000E+00  0.00000000E+00  0.00000000E+00
  0.00000000E+00  0.00000000E+00  0.00000000E+00
