10.66                                   
   1.00000000000000     
    10.6599998474000000    0.0000000000000000    0.0000000000000000
     5.3299999237000000    9.2318306721999992    0.0000000000000000
     0.0000000000000000    0.0000000000000000   22.0000000000000000
   Pt   Fe   Co   Cu   Ni   H 
    32    13    10    13    12     1
Selective dynamics
Direct
  0.7874360914854673  0.8787045564725146  0.3176482307757404   T   T   T
  0.0419729361467852  0.8825190826211142  0.3150488031413891   T   T   T
  0.2794646077610992  0.3807229842553100  0.3185509788820085   T   T   T
  0.8761374234302542  0.9637277654261853  0.4245314384041417   T   T   T
  0.1217204084943301  0.4622546148719306  0.4257861597993120   T   T   T
  0.1250792754072843  0.9610998926421991  0.4199222711318125   T   T   T
  0.8742038996364400  0.4586506255251872  0.4243989007651904   T   T   T
  0.3738343757102902  0.9600451725982841  0.4188171403448825   T   T   T
  0.8737708285489005  0.2113749522356382  0.4192083755441512   T   T   T
  0.1258044049176366  0.2107516769806045  0.4208822422983576   T   T   T
  0.6212271844052610  0.9623182018039015  0.4245386955491365   T   T   T
  0.8750013152184288  0.7064954786985029  0.4274239729382446   T   T   T
  0.3737284032199584  0.2098405798994264  0.4230006732157954   T   T   T
  0.3754107076186272  0.7123679604678035  0.4225106683847981   T   T   T
  0.6256246323524824  0.4613106081770638  0.4210385246442427   T   T   T
  0.1259982576506188  0.7097005292225032  0.4238883465044246   T   T   T
  0.6238576875046475  0.2126013186217314  0.4201175061900310   T   T   T
  0.5480083607156688  0.3756818523917252  0.3161623424612358   T   T   T
  0.5348402519564076  0.1240582823536402  0.3147089416296002   T   T   T
  0.5486022592113002  0.1220783678684398  0.0417194611409073   F   F   F
  0.1203770114094098  0.4596758926676330  0.1283201030954544   F   F   F
  0.0436562101965993  0.1362717058748642  0.3136773581358984   T   T   T
  0.0418426388172080  0.1305148925801163  0.0343023685500015   F   F   F
  0.1308766909586225  0.9576410281464973  0.1324593496136330   F   F   F
  0.3740266801050859  0.4609954963947731  0.4248265081389673   T   T   T
  0.4550909163204385  0.5457557124089670  0.2186523541290053   T   T   T
  0.6213453019739901  0.7102538550708573  0.4215762264604138   T   T   T
  0.9557310661192707  0.7887842240931069  0.2210407135453391   T   T   T
  0.7957270654985639  0.6226300013387746  0.3188596687385719   T   T   T
  0.2919272308715781  0.6310591240971516  0.3175050111003409   T   T   T
  0.2024315161145119  0.2793677056232937  0.2253024120264244   T   T   T
  0.7063350507934825  0.5495809731301702  0.2211003233150935   T   T   T
  0.0407481730949070  0.6313804238046951  0.3247264265721412   T   T   T
  0.7960105560665554  0.8618201000109948  0.0435832611454572   F   F   F
  0.0565437832242921  0.8651109997121225  0.0392200758363614   F   F   F
  0.0435481061810350  0.6317236463144766  0.0389093084545422   F   F   F
  0.6276815134142240  0.2235163201393817  0.1293691217272723   F   F   F
  0.3825164796165623  0.9540841432375444  0.1307328652727264   F   F   F
  0.0359713954769875  0.3831923176345187  0.3235156750740267   T   T   T
  0.0278953743126209  0.3811135671600852  0.0392268803136346   F   F   F
  0.8723854835080758  0.2152433571581582  0.1290949134499968   F   F   F
  0.9551037223537276  0.5444205785704215  0.2239183182026431   T   T   T
  0.2971777854406950  0.1156791297258952  0.3204549188325069   T   T   T
  0.5406999025984185  0.6291843153278912  0.3213591524596366   T   T   T
  0.2959387413066850  0.1156684851700760  0.0410976887409120   F   F   F
  0.5491575652165039  0.6253534475437093  0.0451299578272710   F   F   F
  0.2944436057289366  0.3818825695120651  0.0395469972636349   F   F   F
  0.6257779840731033  0.9479981115397109  0.1328387403227254   F   F   F
  0.7076006681975030  0.7930444855348830  0.2206227822033902   T   T   T
  0.8652306351059451  0.7044347069518153  0.1296516185590875   F   F   F
  0.6267408805099777  0.4597839886277342  0.1279108792227248   F   F   F
  0.2976138542634711  0.8749860115402016  0.3178092627492932   T   T   T
  0.3065683121091567  0.8685951938597540  0.0415361194227302   F   F   F
  0.6265607890783187  0.7150544964909855  0.1290314723727306   F   F   F
  0.2256003373228896  0.0272453242725919  0.2275137126836069   T   T   T
  0.5442540274210828  0.3813987627289208  0.0359396309863627   F   F   F
  0.3788308164937106  0.2041435759404919  0.1334105030954547   F   F   F
  0.1370202990309650  0.7046968196449441  0.1327566403363605   F   F   F
  0.7049324917084614  0.0500738742091491  0.2206744539507165   T   T   T
  0.7927133825461222  0.1291090009704833  0.3165856274724954   T   T   T
  0.5391161359513762  0.8727799621947627  0.3168433882698137   T   T   T
  0.7969090446290110  0.1230080278139880  0.0358981495909063   F   F   F
  0.5463967724760010  0.8699164031445790  0.0370350138545490   F   F   F
  0.2077933479213805  0.5423494070576287  0.2237505387105301   T   T   T
  0.9511760493379235  0.2974370469571996  0.2216480339155492   T   T   T
  0.8720363512232439  0.9641267701868443  0.1296642823045460   F   F   F
  0.7155699143990628  0.2895665855703277  0.2235497869246989   T   T   T
  0.4574374879705004  0.2920277721254906  0.2208313766364345   T   T   T
  0.8754952507754368  0.4570332552356646  0.1289402077090926   F   F   F
  0.1280802376379100  0.2061871464271974  0.1293457843363655   F   F   F
  0.7920109362154477  0.6217651118845851  0.0414976089772736   F   F   F
  0.2975223793196520  0.6287043760646469  0.0435603156136395   F   F   F
  0.3861497401569878  0.7125257726301442  0.1296682481727274   F   F   F
  0.3823461753116746  0.4514638794503369  0.1268844718136393   F   F   F
  0.7930960926956997  0.3795453852125580  0.3199266256395384   T   T   T
  0.7914206266351727  0.3768939204309305  0.0409385091409078   F   F   F
  0.9558575258176570  0.0529287430888621  0.2215295904017860   T   T   T
  0.4588048601677294  0.7963692744798405  0.2248605469515652   T   T   T
  0.2149815238468705  0.7977492854254001  0.2245565220989250   T   T   T
  0.4624983790251344  0.0290529000538232  0.2226821070400842   T   T   T
  0.7848088800967626  0.8849302388891607  0.4696512600798897   T   T   T
 
  0.00000000E+00  0.00000000E+00  0.00000000E+00
  0.00000000E+00  0.00000000E+00  0.00000000E+00
  0.00000000E+00  0.00000000E+00  0.00000000E+00
  0.00000000E+00  0.00000000E+00  0.00000000E+00
  0.00000000E+00  0.00000000E+00  0.00000000E+00
  0.00000000E+00  0.00000000E+00  0.00000000E+00
  0.00000000E+00  0.00000000E+00  0.00000000E+00
  0.00000000E+00  0.00000000E+00  0.00000000E+00
  0.00000000E+00  0.00000000E+00  0.00000000E+00
  0.00000000E+00  0.00000000E+00  0.00000000E+00
  0.00000000E+00  0.00000000E+00  0.00000000E+00
  0.00000000E+00  0.00000000E+00  0.00000000E+00
  0.00000000E+00  0.00000000E+00  0.00000000E+00
  0.00000000E+00  0.00000000E+00  0.00000000E+00
  0.00000000E+00  0.00000000E+00  0.00000000E+00
  0.00000000E+00  0.00000000E+00  0.00000000E+00
  0.00000000E+00  0.00000000E+00  0.00000000E+00
  0.00000000E+00  0.00000000E+00  0.00000000E+00
  0.00000000E+00  0.00000000E+00  0.00000000E+00
  0.00000000E+00  0.00000000E+00  0.00000000E+00
  0.00000000E+00  0.00000000E+00  0.00000000E+00
  0.00000000E+00  0.00000000E+00  0.00000000E+00
  0.00000000E+00  0.00000000E+00  0.00000000E+00
  0.00000000E+00  0.00000000E+00  0.00000000E+00
  0.00000000E+00  0.00000000E+00  0.00000000E+00
  0.00000000E+00  0.00000000E+00  0.00000000E+00
  0.00000000E+00  0.00000000E+00  0.00000000E+00
  0.00000000E+00  0.00000000E+00  0.00000000E+00
  0.00000000E+00  0.00000000E+00  0.00000000E+00
  0.00000000E+00  0.00000000E+00  0.00000000E+00
  0.00000000E+00  0.00000000E+00  0.00000000E+00
  0.00000000E+00  0.00000000E+00  0.00000000E+00
  0.00000000E+00  0.00000000E+00  0.00000000E+00
  0.00000000E+00  0.00000000E+00  0.00000000E+00
  0.00000000E+00  0.00000000E+00  0.00000000E+00
  0.00000000E+00  0.00000000E+00  0.00000000E+00
  0.00000000E+00  0.00000000E+00  0.00000000E+00
  0.00000000E+00  0.00000000E+00  0.00000000E+00
  0.00000000E+00  0.00000000E+00  0.00000000E+00
  0.00000000E+00  0.00000000E+00  0.00000000E+00
  0.00000000E+00  0.00000000E+00  0.00000000E+00
  0.00000000E+00  0.00000000E+00  0.00000000E+00
  0.00000000E+00  0.00000000E+00  0.00000000E+00
  0.00000000E+00  0.00000000E+00  0.00000000E+00
  0.00000000E+00  0.00000000E+00  0.00000000E+00
  0.00000000E+00  0.00000000E+00  0.00000000E+00
  0.00000000E+00  0.00000000E+00  0.00000000E+00
  0.00000000E+00  0.00000000E+00  0.00000000E+00
  0.00000000E+00  0.00000000E+00  0.00000000E+00
  0.00000000E+00  0.00000000E+00  0.00000000E+00
  0.00000000E+00  0.00000000E+00  0.00000000E+00
  0.00000000E+00  0.00000000E+00  0.00000000E+00
  0.00000000E+00  0.00000000E+00  0.00000000E+00
  0.00000000E+00  0.00000000E+00  0.00000000E+00
  0.00000000E+00  0.00000000E+00  0.00000000E+00
  0.00000000E+00  0.00000000E+00  0.00000000E+00
  0.00000000E+00  0.00000000E+00  0.00000000E+00
  0.00000000E+00  0.00000000E+00  0.00000000E+00
  0.00000000E+00  0.00000000E+00  0.00000000E+00
  0.00000000E+00  0.00000000E+00  0.00000000E+00
  0.00000000E+00  0.00000000E+00  0.00000000E+00
  0.00000000E+00  0.00000000E+00  0.00000000E+00
  0.00000000E+00  0.00000000E+00  0.00000000E+00
  0.00000000E+00  0.00000000E+00  0.00000000E+00
  0.00000000E+00  0.00000000E+00  0.00000000E+00
  0.00000000E+00  0.00000000E+00  0.00000000E+00
  0.00000000E+00  0.00000000E+00  0.00000000E+00
  0.00000000E+00  0.00000000E+00  0.00000000E+00
  0.00000000E+00  0.00000000E+00  0.00000000E+00
  0.00000000E+00  0.00000000E+00  0.00000000E+00
  0.00000000E+00  0.00000000E+00  0.00000000E+00
  0.00000000E+00  0.00000000E+00  0.00000000E+00
  0.00000000E+00  0.00000000E+00  0.00000000E+00
  0.00000000E+00  0.00000000E+00  0.00000000E+00
  0.00000000E+00  0.00000000E+00  0.00000000E+00
  0.00000000E+00  0.00000000E+00  0.00000000E+00
  0.00000000E+00  0.00000000E+00  0.00000000E+00
  0.00000000E+00  0.00000000E+00  0.00000000E+00
  0.00000000E+00  0.00000000E+00  0.00000000E+00
  0.00000000E+00  0.00000000E+00  0.00000000E+00
  0.00000000E+00  0.00000000E+00  0.00000000E+00
