11.26                                   
   1.00000000000000     
    11.2227001190000006    0.0000000000000000    0.0000000000000000
     5.6113500595000003    9.7191434021000003    0.0000000000000000
     0.0000000000000000    0.0000000000000000   22.0000000000000000
   Pt   Co   Ni   H 
    32    23    25     1
Selective dynamics
Direct
  0.7876458441471408  0.8795228917621575  0.3015805138695921   T   T   T
  0.0312865246220704  0.8795807871536619  0.2916713856520978   T   T   T
  0.2768171399703876  0.3603591305115846  0.3110656300243684   T   T   T
  0.8800067484493757  0.9622594896940474  0.3990139291317135   T   T   T
  0.1149939042394460  0.4653796793115793  0.4104339590024814   T   T   T
  0.1291586836439385  0.9507630726258905  0.3971908631835623   T   T   T
  0.8724303140945506  0.4561265682765223  0.4122673366945460   T   T   T
  0.3733797657060420  0.9519880793043267  0.4152731047649238   T   T   T
  0.8641072052554433  0.2128682274658651  0.3970377735925031   T   T   T
  0.1251513689188242  0.2129373237816252  0.4133768466442734   T   T   T
  0.6306029722767801  0.9479709888185657  0.4112907052146129   T   T   T
  0.8775299770550111  0.7131141457085607  0.4080862389049681   T   T   T
  0.3700705832250503  0.2033743336084497  0.4153584253062009   T   T   T
  0.3741582866485203  0.6992680799049444  0.4003207597474009   T   T   T
  0.6184261006694139  0.4578986109762297  0.3992307386208845   T   T   T
  0.1186767511472852  0.7101058636579125  0.4005523367494936   T   T   T
  0.6302792180711487  0.2014792764238306  0.4060960089094314   T   T   T
  0.5389801032210058  0.3460405673842429  0.3008711693263159   T   T   T
  0.5273059821772366  0.1126920663575769  0.3094966718690609   T   T   T
  0.5456924111831540  0.1264773896570333  0.0668330444500000   F   F   F
  0.1179165896219203  0.4079249947421673  0.1190886190954572   F   F   F
  0.0536823509009263  0.1474865062662858  0.3104108137896030   T   T   T
  0.0089289541086117  0.1017685166149818  0.0491765075181831   F   F   F
  0.1378320738526071  0.9269114493519552  0.1419736841636379   F   F   F
  0.3742573160888488  0.4522325850705137  0.4054836239048820   T   T   T
  0.4797971570719426  0.5539988047029567  0.2297174711863619   F   F   F
  0.6263932249917389  0.7067165590542972  0.4134136923288621   T   T   T
  0.9525234537930558  0.7589897745830285  0.2042040527636360   F   F   F
  0.7963375469405179  0.6312033490507085  0.3105876032220822   T   T   T
  0.2740198071849225  0.6062423273418706  0.3019437263326613   T   T   T
  0.1874902960314415  0.2619820637330932  0.2253988999272707   F   F   F
  0.7108920581928047  0.5610073442297292  0.2141021541772758   F   F   F
  0.0418183769974463  0.6073513539362012  0.3051447398655422   T   T   T
  0.7819683701955427  0.8836707209448420  0.0801259714954554   F   F   F
  0.0016786040756998  0.8657086972172863  0.0717220294954544   F   F   F
  0.0064947452574984  0.6568619922019678  0.0936782229045434   F   F   F
  0.6278902107001798  0.2337904024246669  0.1497297419681800   F   F   F
  0.3605011249257544  0.9423524271924038  0.1347041508181803   F   F   F
  0.0229456329662871  0.3954560906740354  0.3162069286011323   T   T   T
  0.0129609727070417  0.3213949785765138  0.0444243323545450   F   F   F
  0.8442397035971254  0.2276131851930501  0.1389197702363631   F   F   F
  0.9674460336454942  0.5204864880486255  0.2188500749409101   F   F   F
  0.3026748146411152  0.0985378649890196  0.3192264059967089   T   T   T
  0.5519188406866429  0.6475517663881706  0.3170634412047389   T   T   T
  0.2508545359252849  0.0912810139428828  0.0487872830227261   F   F   F
  0.5291378415644843  0.6116220387812774  0.0469794814590898   F   F   F
  0.3338924189020531  0.3612659424843301  0.0722196333181842   F   F   F
  0.5814733168765329  0.9365131401840756  0.1369430198363659   F   F   F
  0.6773266661753325  0.8092123915571250  0.2230530417863648   F   F   F
  0.8097944659668883  0.6790648121082299  0.1402434814090938   F   F   F
  0.6293781667954050  0.4536695041506746  0.1332572430909096   F   F   F
  0.3216908047867744  0.8722606891492753  0.3163432260986013   T   T   T
  0.2991981285917618  0.8498356801809663  0.0500064375045426   F   F   F
  0.5810344788006034  0.7261254454662236  0.1239217899045428   F   F   F
  0.2290723421035281  0.0129455240441061  0.2296757311181850   F   F   F
  0.5487186473537591  0.3606903691062442  0.0554524207318181   F   F   F
  0.3441165493717691  0.1669096226370641  0.1316441221863656   F   F   F
  0.1755439985883172  0.6842061655827791  0.1476189425363614   F   F   F
  0.6608263512248982  0.0424903716114287  0.2130448247909058   F   F   F
  0.7845177691591658  0.1165257676967519  0.2967105908606441   T   T   T
  0.5367899423050579  0.8739738304617067  0.3161482745197788   T   T   T
  0.7728439665680398  0.1227826303336741  0.0604845839136345   F   F   F
  0.5003074210799383  0.8984495284649512  0.0445551465727263   F   F   F
  0.1957150797376812  0.5052286738087446  0.2143863590590911   F   F   F
  0.9354617673556689  0.3154204577882496  0.2255271175500013   F   F   F
  0.8582446837676017  0.0019510069473725  0.1561197289090899   F   F   F
  0.7210428981411425  0.3149762791995201  0.2296972617681803   F   F   F
  0.4300228872279135  0.2657770050025050  0.2137706572090892   F   F   F
  0.8770375531629568  0.4295574328801379  0.1287836487363663   F   F   F
  0.0963481931919432  0.1806982179952712  0.1396927366863636   F   F   F
  0.7598886996324694  0.5886779948286147  0.0515561146681804   F   F   F
  0.3152737423209686  0.5915166876494311  0.0592523364318183   F   F   F
  0.3817921641394761  0.7012659040432894  0.1364658375045451   F   F   F
  0.4004265753919469  0.4537703161625402  0.1488472664727283   F   F   F
  0.7903126102443292  0.4014516512062076  0.3137817156143061   T   T   T
  0.7808992644723389  0.3514802091058655  0.0459807957863632   F   F   F
  0.9695440421590007  0.0843031522842779  0.2219682032818184   F   F   F
  0.4648689818808052  0.7946388815429231  0.2253314380545461   F   F   F
  0.2489049567848340  0.7859896227119592  0.2326762259318187   F   F   F
  0.4386220550658777  0.0277131730808478  0.2245019522090885   F   F   F
  0.5422198819311230  0.1220393146937303  0.4482296960677547   T   T   T
 
  0.00000000E+00  0.00000000E+00  0.00000000E+00
  0.00000000E+00  0.00000000E+00  0.00000000E+00
  0.00000000E+00  0.00000000E+00  0.00000000E+00
  0.00000000E+00  0.00000000E+00  0.00000000E+00
  0.00000000E+00  0.00000000E+00  0.00000000E+00
  0.00000000E+00  0.00000000E+00  0.00000000E+00
  0.00000000E+00  0.00000000E+00  0.00000000E+00
  0.00000000E+00  0.00000000E+00  0.00000000E+00
  0.00000000E+00  0.00000000E+00  0.00000000E+00
  0.00000000E+00  0.00000000E+00  0.00000000E+00
  0.00000000E+00  0.00000000E+00  0.00000000E+00
  0.00000000E+00  0.00000000E+00  0.00000000E+00
  0.00000000E+00  0.00000000E+00  0.00000000E+00
  0.00000000E+00  0.00000000E+00  0.00000000E+00
  0.00000000E+00  0.00000000E+00  0.00000000E+00
  0.00000000E+00  0.00000000E+00  0.00000000E+00
  0.00000000E+00  0.00000000E+00  0.00000000E+00
  0.00000000E+00  0.00000000E+00  0.00000000E+00
  0.00000000E+00  0.00000000E+00  0.00000000E+00
  0.00000000E+00  0.00000000E+00  0.00000000E+00
  0.00000000E+00  0.00000000E+00  0.00000000E+00
  0.00000000E+00  0.00000000E+00  0.00000000E+00
  0.00000000E+00  0.00000000E+00  0.00000000E+00
  0.00000000E+00  0.00000000E+00  0.00000000E+00
  0.00000000E+00  0.00000000E+00  0.00000000E+00
  0.00000000E+00  0.00000000E+00  0.00000000E+00
  0.00000000E+00  0.00000000E+00  0.00000000E+00
  0.00000000E+00  0.00000000E+00  0.00000000E+00
  0.00000000E+00  0.00000000E+00  0.00000000E+00
  0.00000000E+00  0.00000000E+00  0.00000000E+00
  0.00000000E+00  0.00000000E+00  0.00000000E+00
  0.00000000E+00  0.00000000E+00  0.00000000E+00
  0.00000000E+00  0.00000000E+00  0.00000000E+00
  0.00000000E+00  0.00000000E+00  0.00000000E+00
  0.00000000E+00  0.00000000E+00  0.00000000E+00
  0.00000000E+00  0.00000000E+00  0.00000000E+00
  0.00000000E+00  0.00000000E+00  0.00000000E+00
  0.00000000E+00  0.00000000E+00  0.00000000E+00
  0.00000000E+00  0.00000000E+00  0.00000000E+00
  0.00000000E+00  0.00000000E+00  0.00000000E+00
  0.00000000E+00  0.00000000E+00  0.00000000E+00
  0.00000000E+00  0.00000000E+00  0.00000000E+00
  0.00000000E+00  0.00000000E+00  0.00000000E+00
  0.00000000E+00  0.00000000E+00  0.00000000E+00
  0.00000000E+00  0.00000000E+00  0.00000000E+00
  0.00000000E+00  0.00000000E+00  0.00000000E+00
  0.00000000E+00  0.00000000E+00  0.00000000E+00
  0.00000000E+00  0.00000000E+00  0.00000000E+00
  0.00000000E+00  0.00000000E+00  0.00000000E+00
  0.00000000E+00  0.00000000E+00  0.00000000E+00
  0.00000000E+00  0.00000000E+00  0.00000000E+00
  0.00000000E+00  0.00000000E+00  0.00000000E+00
  0.00000000E+00  0.00000000E+00  0.00000000E+00
  0.00000000E+00  0.00000000E+00  0.00000000E+00
  0.00000000E+00  0.00000000E+00  0.00000000E+00
  0.00000000E+00  0.00000000E+00  0.00000000E+00
  0.00000000E+00  0.00000000E+00  0.00000000E+00
  0.00000000E+00  0.00000000E+00  0.00000000E+00
  0.00000000E+00  0.00000000E+00  0.00000000E+00
  0.00000000E+00  0.00000000E+00  0.00000000E+00
  0.00000000E+00  0.00000000E+00  0.00000000E+00
  0.00000000E+00  0.00000000E+00  0.00000000E+00
  0.00000000E+00  0.00000000E+00  0.00000000E+00
  0.00000000E+00  0.00000000E+00  0.00000000E+00
  0.00000000E+00  0.00000000E+00  0.00000000E+00
  0.00000000E+00  0.00000000E+00  0.00000000E+00
  0.00000000E+00  0.00000000E+00  0.00000000E+00
  0.00000000E+00  0.00000000E+00  0.00000000E+00
  0.00000000E+00  0.00000000E+00  0.00000000E+00
  0.00000000E+00  0.00000000E+00  0.00000000E+00
  0.00000000E+00  0.00000000E+00  0.00000000E+00
  0.00000000E+00  0.00000000E+00  0.00000000E+00
  0.00000000E+00  0.00000000E+00  0.00000000E+00
  0.00000000E+00  0.00000000E+00  0.00000000E+00
  0.00000000E+00  0.00000000E+00  0.00000000E+00
  0.00000000E+00  0.00000000E+00  0.00000000E+00
  0.00000000E+00  0.00000000E+00  0.00000000E+00
  0.00000000E+00  0.00000000E+00  0.00000000E+00
  0.00000000E+00  0.00000000E+00  0.00000000E+00
  0.00000000E+00  0.00000000E+00  0.00000000E+00
  0.00000000E+00  0.00000000E+00  0.00000000E+00
