11.16                                   
   1.00000000000000     
    11.1599998474000000    0.0000000000000000    0.0000000000000000
     5.5799999237000000    9.6648433741000002    0.0000000000000000
     0.0000000000000000    0.0000000000000000   22.0000000000000000
   Pt   Fe   Co   Cu   Ni   H 
    32    13    10    13    12     1
Selective dynamics
Direct
  0.7848874769826064  0.8802497286543787  0.3073236955633715   T   T   T
  0.0383838178954940  0.8790315557335355  0.3021904197736967   T   T   T
  0.2760049973101021  0.3749149179028654  0.3140335585020658   T   T   T
  0.8719823989210305  0.9675745364026669  0.4080488384670832   T   T   T
  0.1169242463374610  0.4633996583734902  0.4168539529894246   T   T   T
  0.1235673195976707  0.9579612433983341  0.4087205195894608   T   T   T
  0.8737667716581676  0.4542317413265550  0.4165739990445611   T   T   T
  0.3719603535304204  0.9588676484579752  0.4135460344499524   T   T   T
  0.8707219722913737  0.2118116174127232  0.4090417058799398   T   T   T
  0.1263749003825222  0.2126286909441348  0.4128681924179315   T   T   T
  0.6238831623570297  0.9590390417717178  0.4119161398733181   T   T   T
  0.8674611611186317  0.7170231381524225  0.4159644009488651   T   T   T
  0.3750567467569595  0.2056630914539829  0.4150171148060200   T   T   T
  0.3734771358775341  0.7114550849915834  0.4120161864133940   T   T   T
  0.6236272121883243  0.4631743583338774  0.4143176325922879   T   T   T
  0.1187478044797134  0.7163334496020174  0.4149234906227851   T   T   T
  0.6242477274479089  0.2082679818190264  0.4114480201083660   T   T   T
  0.5421570276476734  0.3788553208215114  0.3139102224973334   T   T   T
  0.5307194111368311  0.1266610185653619  0.3103338276121951   T   T   T
  0.5479360330018892  0.1255909399993769  0.0556212010000010   F   F   F
  0.1050472610022197  0.4365478169989387  0.1244170880000013   F   F   F
  0.0480903336865637  0.1330742833451199  0.3105046718369857   T   T   T
  0.0252908159984528  0.1249324719980223  0.0404736890000024   F   F   F
  0.1302648480056590  0.9552854379970483  0.1381767990000000   F   F   F
  0.3718631164880138  0.4596048754637887  0.4141134276196207   T   T   T
  0.4550904889956513  0.5565127150030875  0.2215455449999979   F   F   F
  0.6201031709735142  0.7110519213092606  0.4147323622679523   T   T   T
  0.9509405679971650  0.7708154409997050  0.2115423250000035   F   F   F
  0.7972054194458216  0.6239462268877103  0.3161734210347559   T   T   T
  0.2784707720022039  0.6282123530792456  0.3120128392484627   T   T   T
  0.1908233009982538  0.2723671880037202  0.2256696439999999   F   F   F
  0.6991999430008917  0.5561380480002356  0.2216657290000015   F   F   F
  0.0372902543382653  0.6337982785387821  0.3166692034811665   T   T   T
  0.7946764739981020  0.8597211840045702  0.0603210109999992   F   F   F
  0.0472277110004455  0.8608318650042008  0.0526243289999968   F   F   F
  0.0485999499998186  0.6467734080048757  0.0614832309999969   F   F   F
  0.6256235380037083  0.2386853370000779  0.1339005230000012   F   F   F
  0.3812980910045098  0.9505843839973807  0.1357545959999982   F   F   F
  0.0306519592524848  0.3843502241616437  0.3200214834154730   T   T   T
  0.9912695609975515  0.3684184990045480  0.0440217040000022   F   F   F
  0.8635013100046720  0.2184212299970767  0.1330608560000002   F   F   F
  0.9518373099983606  0.5353226950024705  0.2223101310000004   F   F   F
  0.2996019112775641  0.1135669837612257  0.3189395549156407   T   T   T
  0.5415554627452295  0.6254363670968656  0.3201784159756095   T   T   T
  0.2807374070033362  0.1057206180017545  0.0521704009999979   F   F   F
  0.5389871579988039  0.6297256979983672  0.0482680530000010   F   F   F
  0.2984369150014814  0.4021714700019103  0.0563919000000013   F   F   F
  0.6229950689996713  0.9410554790027277  0.1384750280000020   F   F   F
  0.7030949789992391  0.7872524540014609  0.2202327469999972   F   F   F
  0.8492780659956765  0.6806581090004045  0.1312540879999986   F   F   F
  0.6167672719963306  0.4701632850023429  0.1300353250000015   F   F   F
  0.2971998358100778  0.8780031655929360  0.3176283267604816   T   T   T
  0.3010432329997101  0.8779877230023061  0.0477690259999974   F   F   F
  0.6085638729960010  0.7220527840007378  0.1306725419999992   F   F   F
  0.2344297509992543  0.0211869069962134  0.2284564759999981   F   F   F
  0.5345829480016135  0.3861113929999433  0.0411396889999978   F   F   F
  0.3654986089970507  0.2055446419984008  0.1382749189999970   F   F   F
  0.1632348660030445  0.7032863599957651  0.1453273950000025   F   F   F
  0.6943087199969469  0.0635364790024013  0.2192384980000028   F   F   F
  0.7879237130246810  0.1322104197818334  0.3112523904473894   T   T   T
  0.5405789409845075  0.8718511280864266  0.3162656556499382   T   T   T
  0.7846798790017004  0.1256469870018009  0.0427919030000012   F   F   F
  0.5372086529994675  0.8832323749990323  0.0436522959999976   F   F   F
  0.2017743049958654  0.5253248889998474  0.2194479380000018   F   F   F
  0.9396576839989592  0.3052585559954508  0.2247454689999984   F   F   F
  0.8650139610018002  0.9809937170019438  0.1369568650000019   F   F   F
  0.7110290679977993  0.3025694279988613  0.2258082520000002   F   F   F
  0.4534265499967844  0.2969096760005385  0.2215668939999986   F   F   F
  0.8590857100010396  0.4481114409992486  0.1318170369999976   F   F   F
  0.1134855920053752  0.1976785879965632  0.1337839910000014   F   F   F
  0.7711452319973731  0.6097180460049358  0.0462050280000028   F   F   F
  0.2956336770026624  0.6272833540010225  0.0522508780000024   F   F   F
  0.3842174690008733  0.7187581390005562  0.1329304850000028   F   F   F
  0.3925397009957408  0.4550135800011859  0.1351707090000005   F   F   F
  0.7865543654850373  0.3887799707712393  0.3184800178055521   T   T   T
  0.7750661889946855  0.3681197870039270  0.0452688499999994   F   F   F
  0.9449614759988236  0.0723766599958111  0.2217785010000028   F   F   F
  0.4633447139960225  0.7962897130049598  0.2274368460000034   F   F   F
  0.2354054279977760  0.7988368000033859  0.2276622600000024   F   F   F
  0.4587377860000856  0.0246024700035150  0.2248121169999990   F   F   F
  0.0366588687745041  0.6347610328816468  0.4571578796320852   T   T   T
 
  0.00000000E+00  0.00000000E+00  0.00000000E+00
  0.00000000E+00  0.00000000E+00  0.00000000E+00
  0.00000000E+00  0.00000000E+00  0.00000000E+00
  0.00000000E+00  0.00000000E+00  0.00000000E+00
  0.00000000E+00  0.00000000E+00  0.00000000E+00
  0.00000000E+00  0.00000000E+00  0.00000000E+00
  0.00000000E+00  0.00000000E+00  0.00000000E+00
  0.00000000E+00  0.00000000E+00  0.00000000E+00
  0.00000000E+00  0.00000000E+00  0.00000000E+00
  0.00000000E+00  0.00000000E+00  0.00000000E+00
  0.00000000E+00  0.00000000E+00  0.00000000E+00
  0.00000000E+00  0.00000000E+00  0.00000000E+00
  0.00000000E+00  0.00000000E+00  0.00000000E+00
  0.00000000E+00  0.00000000E+00  0.00000000E+00
  0.00000000E+00  0.00000000E+00  0.00000000E+00
  0.00000000E+00  0.00000000E+00  0.00000000E+00
  0.00000000E+00  0.00000000E+00  0.00000000E+00
  0.00000000E+00  0.00000000E+00  0.00000000E+00
  0.00000000E+00  0.00000000E+00  0.00000000E+00
  0.00000000E+00  0.00000000E+00  0.00000000E+00
  0.00000000E+00  0.00000000E+00  0.00000000E+00
  0.00000000E+00  0.00000000E+00  0.00000000E+00
  0.00000000E+00  0.00000000E+00  0.00000000E+00
  0.00000000E+00  0.00000000E+00  0.00000000E+00
  0.00000000E+00  0.00000000E+00  0.00000000E+00
  0.00000000E+00  0.00000000E+00  0.00000000E+00
  0.00000000E+00  0.00000000E+00  0.00000000E+00
  0.00000000E+00  0.00000000E+00  0.00000000E+00
  0.00000000E+00  0.00000000E+00  0.00000000E+00
  0.00000000E+00  0.00000000E+00  0.00000000E+00
  0.00000000E+00  0.00000000E+00  0.00000000E+00
  0.00000000E+00  0.00000000E+00  0.00000000E+00
  0.00000000E+00  0.00000000E+00  0.00000000E+00
  0.00000000E+00  0.00000000E+00  0.00000000E+00
  0.00000000E+00  0.00000000E+00  0.00000000E+00
  0.00000000E+00  0.00000000E+00  0.00000000E+00
  0.00000000E+00  0.00000000E+00  0.00000000E+00
  0.00000000E+00  0.00000000E+00  0.00000000E+00
  0.00000000E+00  0.00000000E+00  0.00000000E+00
  0.00000000E+00  0.00000000E+00  0.00000000E+00
  0.00000000E+00  0.00000000E+00  0.00000000E+00
  0.00000000E+00  0.00000000E+00  0.00000000E+00
  0.00000000E+00  0.00000000E+00  0.00000000E+00
  0.00000000E+00  0.00000000E+00  0.00000000E+00
  0.00000000E+00  0.00000000E+00  0.00000000E+00
  0.00000000E+00  0.00000000E+00  0.00000000E+00
  0.00000000E+00  0.00000000E+00  0.00000000E+00
  0.00000000E+00  0.00000000E+00  0.00000000E+00
  0.00000000E+00  0.00000000E+00  0.00000000E+00
  0.00000000E+00  0.00000000E+00  0.00000000E+00
  0.00000000E+00  0.00000000E+00  0.00000000E+00
  0.00000000E+00  0.00000000E+00  0.00000000E+00
  0.00000000E+00  0.00000000E+00  0.00000000E+00
  0.00000000E+00  0.00000000E+00  0.00000000E+00
  0.00000000E+00  0.00000000E+00  0.00000000E+00
  0.00000000E+00  0.00000000E+00  0.00000000E+00
  0.00000000E+00  0.00000000E+00  0.00000000E+00
  0.00000000E+00  0.00000000E+00  0.00000000E+00
  0.00000000E+00  0.00000000E+00  0.00000000E+00
  0.00000000E+00  0.00000000E+00  0.00000000E+00
  0.00000000E+00  0.00000000E+00  0.00000000E+00
  0.00000000E+00  0.00000000E+00  0.00000000E+00
  0.00000000E+00  0.00000000E+00  0.00000000E+00
  0.00000000E+00  0.00000000E+00  0.00000000E+00
  0.00000000E+00  0.00000000E+00  0.00000000E+00
  0.00000000E+00  0.00000000E+00  0.00000000E+00
  0.00000000E+00  0.00000000E+00  0.00000000E+00
  0.00000000E+00  0.00000000E+00  0.00000000E+00
  0.00000000E+00  0.00000000E+00  0.00000000E+00
  0.00000000E+00  0.00000000E+00  0.00000000E+00
  0.00000000E+00  0.00000000E+00  0.00000000E+00
  0.00000000E+00  0.00000000E+00  0.00000000E+00
  0.00000000E+00  0.00000000E+00  0.00000000E+00
  0.00000000E+00  0.00000000E+00  0.00000000E+00
  0.00000000E+00  0.00000000E+00  0.00000000E+00
  0.00000000E+00  0.00000000E+00  0.00000000E+00
  0.00000000E+00  0.00000000E+00  0.00000000E+00
  0.00000000E+00  0.00000000E+00  0.00000000E+00
  0.00000000E+00  0.00000000E+00  0.00000000E+00
  0.00000000E+00  0.00000000E+00  0.00000000E+00
  0.00000000E+00  0.00000000E+00  0.00000000E+00
