11.06                                   
   1.00000000000000     
    11.0600004195999997    0.0000000000000000    0.0000000000000000
     5.5300002097999998    9.5782413293000008    0.0000000000000000
     0.0000000000000000    0.0000000000000000   22.0000000000000000
   Pt   Fe   Co   Cu   Ni   H 
    32    13    10    13    12     1
Selective dynamics
Direct
  0.7873170066691770  0.8791285527377042  0.3106524851454537   F   F   F
  0.0435608346967271  0.8805934051586917  0.3062194711954547   F   F   F
  0.2802565580531819  0.3777657082967281  0.3146930827818153   F   F   F
  0.8767495350801724  0.9634966477373581  0.4112400138818160   F   F   F
  0.1195602240275093  0.4674079921023662  0.4170921123136395   F   F   F
  0.1274842453870377  0.9579421429205652  0.4112845462681847   F   F   F
  0.8754456775620412  0.4620649188762371  0.4214733097227281   F   F   F
  0.3740285906700649  0.9600195545993842  0.4140812969772725   F   F   F
  0.8731581229437140  0.2087957720361757  0.4142866939227261   F   F   F
  0.1314788732976808  0.2116780933361753  0.4140428545772750   F   F   F
  0.6266917019939271  0.9584663342859159  0.4142700521181837   F   F   F
  0.8743869701162481  0.7118917631404358  0.4167140885363665   F   F   F
  0.3778793017061020  0.2065921297521314  0.4161255789363665   F   F   F
  0.3775350397032113  0.7130466424360975  0.4146908112545447   F   F   F
  0.6227602991576049  0.4650316843839164  0.4149224334818200   F   F   F
  0.1231740951902154  0.7117241666532763  0.4152733098136352   F   F   F
  0.6262186015289757  0.2073989036195201  0.4134630365181806   F   F   F
  0.5479322690003130  0.3763526250244809  0.3144435951772735   F   F   F
  0.5343280656975864  0.1254139246236576  0.3109117872363640   F   F   F
  0.5517907035671499  0.1237414160858918  0.0522380319954578   F   F   F
  0.1166403069998836  0.4478305367060003  0.1269050428999989   F   F   F
  0.0470550259156255  0.1353571744359812  0.3114630983363611   F   F   F
  0.0318634206626527  0.1321532286754916  0.0391436539772698   F   F   F
  0.1322902336844294  0.9574246671199944  0.1357499056681846   F   F   F
  0.3741357219187478  0.4598062032773882  0.4165622509090880   F   F   F
  0.4583302334576800  0.5505736616875794  0.2196229883772745   F   F   F
  0.6219587084216371  0.7131347386920766  0.4161475699954522   F   F   F
  0.9547310550067607  0.7790527017495137  0.2153140473863644   F   F   F
  0.7994891350077751  0.6221656075077746  0.3168661486090940   F   F   F
  0.2884287244554642  0.6300000357728521  0.3139097687409063   F   F   F
  0.1973038588486915  0.2737670855169014  0.2256946547136351   F   F   F
  0.7039440396782410  0.5536854017216086  0.2217252195590902   F   F   F
  0.0415370228972520  0.6330341458981721  0.3181060180272723   F   F   F
  0.7942667551087155  0.8599541229665348  0.0553496235818187   F   F   F
  0.0504003372988748  0.8628103274157084  0.0484924134499991   F   F   F
  0.0458392209568999  0.6458845459631064  0.0531647909772701   F   F   F
  0.6274855346454800  0.2338042520028765  0.1340709094590906   F   F   F
  0.3830354864116359  0.9521874920608795  0.1342572065863621   F   F   F
  0.0358376209336058  0.3835962456344291  0.3211223354272761   F   F   F
  0.0087826589867177  0.3763095084036081  0.0435932914227237   F   F   F
  0.8682239942029994  0.2198895605560978  0.1320713060818193   F   F   F
  0.9576874342144350  0.5384780366853548  0.2234689155318179   F   F   F
  0.3006333713850680  0.1144251685585900  0.3187425477954520   F   F   F
  0.5422620816657115  0.6269927814649137  0.3196502424545429   F   F   F
  0.2911501622544819  0.1122415390507356  0.0494274354681821   F   F   F
  0.5501148902293878  0.6255569737600126  0.0488264706954524   F   F   F
  0.3085145004429961  0.3835596446251230  0.0505624604727259   F   F   F
  0.6245341976642393  0.9433204780778155  0.1374917836227283   F   F   F
  0.7074861992497574  0.7893700323013846  0.2208180135954549   F   F   F
  0.8571241580711089  0.6893234213678454  0.1325387087818157   F   F   F
  0.6277723694778672  0.4599996828668367  0.1303307695227289   F   F   F
  0.2988112319865053  0.8743539756073417  0.3170603133772758   F   F   F
  0.3052197422800944  0.8770331463671681  0.0463809798954529   F   F   F
  0.6182318874293458  0.7191778517970846  0.1308751241863604   F   F   F
  0.2334164172359081  0.0220315628041732  0.2282939212136341   F   F   F
  0.5422124353392448  0.3830619451481425  0.0408535510409109   F   F   F
  0.3754399652261782  0.2045931610018457  0.1386052775909121   F   F   F
  0.1558647781371434  0.7043630098421261  0.1400214925545455   F   F   F
  0.7020978323690130  0.0565474128996044  0.2199129117681835   F   F   F
  0.7932986765210330  0.1294291577314652  0.3128504841090916   F   F   F
  0.5418393815750306  0.8712635321759947  0.3162576688636349   F   F   F
  0.7897065490966995  0.1294421438106141  0.0418056654227286   F   F   F
  0.5441043329389430  0.8775533958188859  0.0423234264090908   F   F   F
  0.2084291012041177  0.5357474079612743  0.2217233592454519   F   F   F
  0.9462833612890051  0.3039384823176903  0.2236098237454556   F   F   F
  0.8690563302489380  0.9770500116104230  0.1342576139045448   F   F   F
  0.7171106193404952  0.2969876676105727  0.2257845762136341   F   F   F
  0.4563820814942758  0.2976701910170334  0.2219475371090880   F   F   F
  0.8693529692367647  0.4543744225557163  0.1311308469772712   F   F   F
  0.1220030719522569  0.2018087212614930  0.1324010706863632   F   F   F
  0.7829019622226241  0.6202837550590488  0.0451729013090940   F   F   F
  0.2978972113281415  0.6241254916404273  0.0494225953454546   F   F   F
  0.3860904589733565  0.7174036682893004  0.1312306088954571   F   F   F
  0.3884240254738813  0.4538593918908589  0.1321607624818171   F   F   F
  0.7939421889375353  0.3846657941609095  0.3200297212727250   F   F   F
  0.7861851256519614  0.3745117542013503  0.0441340194818167   F   F   F
  0.9513544597592940  0.0659301343836702  0.2213817175772732   F   F   F
  0.4635982856892369  0.7951887142894378  0.2264081887863654   F   F   F
  0.2310835121427104  0.7963463801926807  0.2255315960954576   F   F   F
  0.4612243376662803  0.0241249826618102  0.2248505513227244   F   F   F
  0.8779283758563350  0.3294539882334107  0.4639935566181841   T   T   T
 
  0.00000000E+00  0.00000000E+00  0.00000000E+00
  0.00000000E+00  0.00000000E+00  0.00000000E+00
  0.00000000E+00  0.00000000E+00  0.00000000E+00
  0.00000000E+00  0.00000000E+00  0.00000000E+00
  0.00000000E+00  0.00000000E+00  0.00000000E+00
  0.00000000E+00  0.00000000E+00  0.00000000E+00
  0.00000000E+00  0.00000000E+00  0.00000000E+00
  0.00000000E+00  0.00000000E+00  0.00000000E+00
  0.00000000E+00  0.00000000E+00  0.00000000E+00
  0.00000000E+00  0.00000000E+00  0.00000000E+00
  0.00000000E+00  0.00000000E+00  0.00000000E+00
  0.00000000E+00  0.00000000E+00  0.00000000E+00
  0.00000000E+00  0.00000000E+00  0.00000000E+00
  0.00000000E+00  0.00000000E+00  0.00000000E+00
  0.00000000E+00  0.00000000E+00  0.00000000E+00
  0.00000000E+00  0.00000000E+00  0.00000000E+00
  0.00000000E+00  0.00000000E+00  0.00000000E+00
  0.00000000E+00  0.00000000E+00  0.00000000E+00
  0.00000000E+00  0.00000000E+00  0.00000000E+00
  0.00000000E+00  0.00000000E+00  0.00000000E+00
  0.00000000E+00  0.00000000E+00  0.00000000E+00
  0.00000000E+00  0.00000000E+00  0.00000000E+00
  0.00000000E+00  0.00000000E+00  0.00000000E+00
  0.00000000E+00  0.00000000E+00  0.00000000E+00
  0.00000000E+00  0.00000000E+00  0.00000000E+00
  0.00000000E+00  0.00000000E+00  0.00000000E+00
  0.00000000E+00  0.00000000E+00  0.00000000E+00
  0.00000000E+00  0.00000000E+00  0.00000000E+00
  0.00000000E+00  0.00000000E+00  0.00000000E+00
  0.00000000E+00  0.00000000E+00  0.00000000E+00
  0.00000000E+00  0.00000000E+00  0.00000000E+00
  0.00000000E+00  0.00000000E+00  0.00000000E+00
  0.00000000E+00  0.00000000E+00  0.00000000E+00
  0.00000000E+00  0.00000000E+00  0.00000000E+00
  0.00000000E+00  0.00000000E+00  0.00000000E+00
  0.00000000E+00  0.00000000E+00  0.00000000E+00
  0.00000000E+00  0.00000000E+00  0.00000000E+00
  0.00000000E+00  0.00000000E+00  0.00000000E+00
  0.00000000E+00  0.00000000E+00  0.00000000E+00
  0.00000000E+00  0.00000000E+00  0.00000000E+00
  0.00000000E+00  0.00000000E+00  0.00000000E+00
  0.00000000E+00  0.00000000E+00  0.00000000E+00
  0.00000000E+00  0.00000000E+00  0.00000000E+00
  0.00000000E+00  0.00000000E+00  0.00000000E+00
  0.00000000E+00  0.00000000E+00  0.00000000E+00
  0.00000000E+00  0.00000000E+00  0.00000000E+00
  0.00000000E+00  0.00000000E+00  0.00000000E+00
  0.00000000E+00  0.00000000E+00  0.00000000E+00
  0.00000000E+00  0.00000000E+00  0.00000000E+00
  0.00000000E+00  0.00000000E+00  0.00000000E+00
  0.00000000E+00  0.00000000E+00  0.00000000E+00
  0.00000000E+00  0.00000000E+00  0.00000000E+00
  0.00000000E+00  0.00000000E+00  0.00000000E+00
  0.00000000E+00  0.00000000E+00  0.00000000E+00
  0.00000000E+00  0.00000000E+00  0.00000000E+00
  0.00000000E+00  0.00000000E+00  0.00000000E+00
  0.00000000E+00  0.00000000E+00  0.00000000E+00
  0.00000000E+00  0.00000000E+00  0.00000000E+00
  0.00000000E+00  0.00000000E+00  0.00000000E+00
  0.00000000E+00  0.00000000E+00  0.00000000E+00
  0.00000000E+00  0.00000000E+00  0.00000000E+00
  0.00000000E+00  0.00000000E+00  0.00000000E+00
  0.00000000E+00  0.00000000E+00  0.00000000E+00
  0.00000000E+00  0.00000000E+00  0.00000000E+00
  0.00000000E+00  0.00000000E+00  0.00000000E+00
  0.00000000E+00  0.00000000E+00  0.00000000E+00
  0.00000000E+00  0.00000000E+00  0.00000000E+00
  0.00000000E+00  0.00000000E+00  0.00000000E+00
  0.00000000E+00  0.00000000E+00  0.00000000E+00
  0.00000000E+00  0.00000000E+00  0.00000000E+00
  0.00000000E+00  0.00000000E+00  0.00000000E+00
  0.00000000E+00  0.00000000E+00  0.00000000E+00
  0.00000000E+00  0.00000000E+00  0.00000000E+00
  0.00000000E+00  0.00000000E+00  0.00000000E+00
  0.00000000E+00  0.00000000E+00  0.00000000E+00
  0.00000000E+00  0.00000000E+00  0.00000000E+00
  0.00000000E+00  0.00000000E+00  0.00000000E+00
  0.00000000E+00  0.00000000E+00  0.00000000E+00
  0.00000000E+00  0.00000000E+00  0.00000000E+00
  0.00000000E+00  0.00000000E+00  0.00000000E+00
  0.00000000E+00  0.00000000E+00  0.00000000E+00
