10.46-high                              
   1.00000000000000     
    10.4600000381000005    0.0000000000000000    0.0000000000000000
     5.2300000191000002    9.0586257565999997    0.0000000000000000
     0.0000000000000000    0.0000000000000000   22.0000000000000000
   Pt   Fe   Co   Cu   Ni   H 
    42    10     9    10     9     1
Selective dynamics
Direct
  0.7774227885817510  0.8679373553514519  0.3235343497142701   T   T   T
  0.0392551535877264  0.8674293400668331  0.3255415852913718   T   T   T
  0.0341000098106431  0.6184543475632738  0.3268473257544249   T   T   T
  0.0298507138301107  0.3679233126787293  0.3252740218167019   T   T   T
  0.2887491930390284  0.1089646975533053  0.3235216001826771   T   T   T
  0.2865973364806710  0.3676381923368154  0.3241906372442425   T   T   T
  0.8646688719993207  0.7049857790015324  0.1222998450000006   F   F   F
  0.8712510871562624  0.9502056972379408  0.4319515823466127   T   T   T
  0.1187682014329257  0.4531570691371385  0.4345743513204024   T   T   T
  0.1200356257081894  0.9512946344914460  0.4308128652276335   T   T   T
  0.8690882322978338  0.4514119386224353  0.4319562135806656   T   T   T
  0.3695367121135109  0.9496921736181189  0.4278458393667008   T   T   T
  0.8685585990756903  0.2027245019166695  0.4276458553379585   T   T   T
  0.1189432891217946  0.2012715329786168  0.4389709369846535   T   T   T
  0.6208134100215255  0.9490179283429458  0.4349540796787902   T   T   T
  0.8689037453041101  0.7024992714986444  0.4363786016286375   T   T   T
  0.3671538083383838  0.2021746375682379  0.4387131201470825   T   T   T
  0.3698273171679456  0.7031780313964584  0.4310845370563722   T   T   T
  0.6206171058271756  0.4527296793183476  0.4285818510299662   T   T   T
  0.1196174170010680  0.7027148887090385  0.4503232728723265   T   T   T
  0.6206591274129434  0.2036693773994007  0.4380616044292050   T   T   T
  0.5393352146264851  0.3728054511681588  0.3220806513032981   T   T   T
  0.5346666032941912  0.1175584649001990  0.3229868678807250   T   T   T
  0.5387088449945026  0.1180223620035363  0.0323852710000025   F   F   F
  0.1229061669992149  0.4482501310026592  0.1229069019999969   F   F   F
  0.0349382178047807  0.1170240746721685  0.3200889312129616   T   T   T
  0.0334052510011063  0.1263050589948875  0.0270631940000001   F   F   F
  0.1140217539961768  0.9592387070046513  0.1256205170000015   F   F   F
  0.3675192739416356  0.4547416601197631  0.4321955586942875   T   T   T
  0.4535746069942803  0.5294572910030624  0.2203990980000015   F   F   F
  0.6187349142163893  0.7016396749879579  0.4351122085425879   T   T   T
  0.9489900690032442  0.7827401870017567  0.2236112900000009   F   F   F
  0.7735611242708190  0.6201586346876752  0.3226201374154664   T   T   T
  0.2905354084941379  0.6218082736154897  0.3245372274649814   T   T   T
  0.3775393079994345  0.6996762390014979  0.1228007950000034   F   F   F
  0.1990148359986961  0.2847226810005736  0.2228073859999995   F   F   F
  0.6985210319978847  0.5449136329982025  0.2191953660000010   F   F   F
  0.2021375509972643  0.7918219440044751  0.2238942059999971   F   F   F
  0.4509136879990976  0.0227837570008518  0.2188853569999978   F   F   F
  0.6963785559985993  0.0426407060053862  0.2154283309999983   F   F   F
  0.7838766159974840  0.1215956872166161  0.3201822705064199   T   T   T
  0.9473702909993094  0.2812973029980199  0.2183517329999987   F   F   F
  0.7886738530021518  0.8644281519958810  0.0287872629999981   F   F   F
  0.0450368569986850  0.8626276869984011  0.0295607660000030   F   F   F
  0.0419381929998366  0.6177767709989226  0.0278294189999997   F   F   F
  0.6176174129956635  0.2140363110030634  0.1243319940000021   F   F   F
  0.3690119070012230  0.9519866300047681  0.1225268520000000   F   F   F
  0.0249286510000459  0.3766440390049368  0.0322170279999980   F   F   F
  0.8625312130032441  0.2106725069980442  0.1232886749999977   F   F   F
  0.9476742869988115  0.5365924040032795  0.2262523169999966   F   F   F
  0.5334824810056078  0.6217997502171445  0.3267534718116753   T   T   T
  0.2883772690024173  0.1137155559991498  0.0325338950000003   F   F   F
  0.5504824240023964  0.6126948950017308  0.0356175679999993   F   F   F
  0.2897445219979105  0.3746422300013208  0.0322482019999981   F   F   F
  0.6142260530037902  0.9430302059974167  0.1245923580000010   F   F   F
  0.6989435809945590  0.7856200150022659  0.2205963350000033   F   F   F
  0.6229743600006756  0.4501393459961704  0.1238703839999999   F   F   F
  0.2910528512821813  0.8652412200584335  0.3209501793794232   T   T   T
  0.2909193859995014  0.8681523620037197  0.0312663890000024   F   F   F
  0.6201044439971781  0.7062132159990142  0.1241399159999972   F   F   F
  0.2056123299998021  0.0307007229984464  0.2259227360000011   F   F   F
  0.5362577209991812  0.3750078080027706  0.0295104469999998   F   F   F
  0.3717786720036287  0.2013498210002851  0.1265723710000017   F   F   F
  0.1215433559978081  0.7002740610051319  0.1260872539999980   F   F   F
  0.5316860197390314  0.8631647686283768  0.3226425402462633   T   T   T
  0.7868755759996588  0.1205942250019660  0.0274876929999976   F   F   F
  0.5384324900042401  0.8622688990003837  0.0293575660000016   F   F   F
  0.2017867139986862  0.5350951929952927  0.2228108750000004   F   F   F
  0.8649812590023060  0.9577480760013586  0.1220255770000023   F   F   F
  0.7014941730027431  0.2859032169987827  0.2208637760000016   F   F   F
  0.4474190369966706  0.2876733090006880  0.2205316149999987   F   F   F
  0.8678252290042252  0.4486707169946555  0.1240203380000011   F   F   F
  0.1229174259965049  0.2020265610008920  0.1240552120000018   F   F   F
  0.7843223469946352  0.6138231070037037  0.0322942649999973   F   F   F
  0.2837197769995612  0.6160386309958952  0.0336797160000017   F   F   F
  0.3761449209956851  0.4443194180052643  0.1229033580000021   F   F   F
  0.7814497673309971  0.3724075523484927  0.3213296943990840   T   T   T
  0.7825934670013694  0.3730426879969002  0.0335873089999978   F   F   F
  0.9480028170031005  0.0375464239983856  0.2205562589999985   F   F   F
  0.4523283130002156  0.7840277900017441  0.2263070449999987   F   F   F
  0.5300605273579709  0.1210926858362284  0.4850463356019505   T   T   T
 
  0.00000000E+00  0.00000000E+00  0.00000000E+00
  0.00000000E+00  0.00000000E+00  0.00000000E+00
  0.00000000E+00  0.00000000E+00  0.00000000E+00
  0.00000000E+00  0.00000000E+00  0.00000000E+00
  0.00000000E+00  0.00000000E+00  0.00000000E+00
  0.00000000E+00  0.00000000E+00  0.00000000E+00
  0.00000000E+00  0.00000000E+00  0.00000000E+00
  0.00000000E+00  0.00000000E+00  0.00000000E+00
  0.00000000E+00  0.00000000E+00  0.00000000E+00
  0.00000000E+00  0.00000000E+00  0.00000000E+00
  0.00000000E+00  0.00000000E+00  0.00000000E+00
  0.00000000E+00  0.00000000E+00  0.00000000E+00
  0.00000000E+00  0.00000000E+00  0.00000000E+00
  0.00000000E+00  0.00000000E+00  0.00000000E+00
  0.00000000E+00  0.00000000E+00  0.00000000E+00
  0.00000000E+00  0.00000000E+00  0.00000000E+00
  0.00000000E+00  0.00000000E+00  0.00000000E+00
  0.00000000E+00  0.00000000E+00  0.00000000E+00
  0.00000000E+00  0.00000000E+00  0.00000000E+00
  0.00000000E+00  0.00000000E+00  0.00000000E+00
  0.00000000E+00  0.00000000E+00  0.00000000E+00
  0.00000000E+00  0.00000000E+00  0.00000000E+00
  0.00000000E+00  0.00000000E+00  0.00000000E+00
  0.00000000E+00  0.00000000E+00  0.00000000E+00
  0.00000000E+00  0.00000000E+00  0.00000000E+00
  0.00000000E+00  0.00000000E+00  0.00000000E+00
  0.00000000E+00  0.00000000E+00  0.00000000E+00
  0.00000000E+00  0.00000000E+00  0.00000000E+00
  0.00000000E+00  0.00000000E+00  0.00000000E+00
  0.00000000E+00  0.00000000E+00  0.00000000E+00
  0.00000000E+00  0.00000000E+00  0.00000000E+00
  0.00000000E+00  0.00000000E+00  0.00000000E+00
  0.00000000E+00  0.00000000E+00  0.00000000E+00
  0.00000000E+00  0.00000000E+00  0.00000000E+00
  0.00000000E+00  0.00000000E+00  0.00000000E+00
  0.00000000E+00  0.00000000E+00  0.00000000E+00
  0.00000000E+00  0.00000000E+00  0.00000000E+00
  0.00000000E+00  0.00000000E+00  0.00000000E+00
  0.00000000E+00  0.00000000E+00  0.00000000E+00
  0.00000000E+00  0.00000000E+00  0.00000000E+00
  0.00000000E+00  0.00000000E+00  0.00000000E+00
  0.00000000E+00  0.00000000E+00  0.00000000E+00
  0.00000000E+00  0.00000000E+00  0.00000000E+00
  0.00000000E+00  0.00000000E+00  0.00000000E+00
  0.00000000E+00  0.00000000E+00  0.00000000E+00
  0.00000000E+00  0.00000000E+00  0.00000000E+00
  0.00000000E+00  0.00000000E+00  0.00000000E+00
  0.00000000E+00  0.00000000E+00  0.00000000E+00
  0.00000000E+00  0.00000000E+00  0.00000000E+00
  0.00000000E+00  0.00000000E+00  0.00000000E+00
  0.00000000E+00  0.00000000E+00  0.00000000E+00
  0.00000000E+00  0.00000000E+00  0.00000000E+00
  0.00000000E+00  0.00000000E+00  0.00000000E+00
  0.00000000E+00  0.00000000E+00  0.00000000E+00
  0.00000000E+00  0.00000000E+00  0.00000000E+00
  0.00000000E+00  0.00000000E+00  0.00000000E+00
  0.00000000E+00  0.00000000E+00  0.00000000E+00
  0.00000000E+00  0.00000000E+00  0.00000000E+00
  0.00000000E+00  0.00000000E+00  0.00000000E+00
  0.00000000E+00  0.00000000E+00  0.00000000E+00
  0.00000000E+00  0.00000000E+00  0.00000000E+00
  0.00000000E+00  0.00000000E+00  0.00000000E+00
  0.00000000E+00  0.00000000E+00  0.00000000E+00
  0.00000000E+00  0.00000000E+00  0.00000000E+00
  0.00000000E+00  0.00000000E+00  0.00000000E+00
  0.00000000E+00  0.00000000E+00  0.00000000E+00
  0.00000000E+00  0.00000000E+00  0.00000000E+00
  0.00000000E+00  0.00000000E+00  0.00000000E+00
  0.00000000E+00  0.00000000E+00  0.00000000E+00
  0.00000000E+00  0.00000000E+00  0.00000000E+00
  0.00000000E+00  0.00000000E+00  0.00000000E+00
  0.00000000E+00  0.00000000E+00  0.00000000E+00
  0.00000000E+00  0.00000000E+00  0.00000000E+00
  0.00000000E+00  0.00000000E+00  0.00000000E+00
  0.00000000E+00  0.00000000E+00  0.00000000E+00
  0.00000000E+00  0.00000000E+00  0.00000000E+00
  0.00000000E+00  0.00000000E+00  0.00000000E+00
  0.00000000E+00  0.00000000E+00  0.00000000E+00
  0.00000000E+00  0.00000000E+00  0.00000000E+00
  0.00000000E+00  0.00000000E+00  0.00000000E+00
  0.00000000E+00  0.00000000E+00  0.00000000E+00
