10.36                                   
   1.00000000000000     
    10.3599996566999994    0.0000000000000000    0.0000000000000000
     5.1799998282999997    8.9720228858999995    0.0000000000000000
     0.0000000000000000    0.0000000000000000   22.0000000000000000
   Pt   Fe   Co   Cu   Ni
    32    13    10    13    12
Direct
  0.7878482939729852  0.8784730692111464  0.3195825388858230
  0.0416887089263753  0.8833351293791730  0.3180167758369873
  0.2791433749351979  0.3804535360488766  0.3220991272167137
  0.8741141485963345  0.9617264476967277  0.4308542386153343
  0.1228269662744228  0.4615189403784389  0.4332361844836939
  0.1240238483535611  0.9614515398029918  0.4250302833746235
  0.8736670246531234  0.4604156061449219  0.4323764164860313
  0.3741919200521026  0.9604258122300328  0.4233960655977146
  0.8739580420505676  0.2113724182621421  0.4231340382302474
  0.1246790126168759  0.2109341496194141  0.4255254621278088
  0.6241154384241294  0.9611469943267837  0.4279338247193540
  0.8739146368993582  0.7106986748658410  0.4307950183373825
  0.3742545265524762  0.2097104694658442  0.4295539207665112
  0.3747460068540825  0.7119057556249484  0.4279872555416960
  0.6247767127613497  0.4613309295654525  0.4260253005540476
  0.1240145499652944  0.7110414821122217  0.4304994397195735
  0.6244202861540782  0.2108441622696837  0.4242736216672688
  0.5477249057800281  0.3765320971683542  0.3182798129517693
  0.5348614871805559  0.1243978082454154  0.3161527581609564
  0.5458014400079686  0.1234550493779804  0.0359400593755167
  0.1219383108327290  0.4607637042083281  0.1261476945822617
  0.0417670224154149  0.1378877758155010  0.3144821066062315
  0.0426177556622566  0.1297797889732543  0.0304909520964679
  0.1298428761097187  0.9585265795496420  0.1305436315386196
  0.3743455190656854  0.4614052855434986  0.4330040903868293
  0.4536142831817434  0.5450805790168407  0.2185534362823597
  0.6229687032516561  0.7113328470961551  0.4266689327505754
  0.9567679528561714  0.7907913211103111  0.2215395440374264
  0.7934291511329862  0.6218697665610905  0.3198262262135619
  0.2921868848248458  0.6316314284281781  0.3199782012632348
  0.2033968113095350  0.2831573253567495  0.2254814981582111
  0.7079943538481991  0.5476533912480180  0.2203153201281840
  0.0401333971155569  0.6302096880914428  0.3284795011115486
  0.7980538117335956  0.8624341141182438  0.0385159092223155
  0.0552849574301995  0.8673564735418454  0.0343513444563996
  0.0474090248428575  0.6263712164493660  0.0327916081573754
  0.6264571710524562  0.2185083723320687  0.1268634264249963
  0.3829453672944656  0.9548385219602507  0.1285988211624222
  0.0352469420258601  0.3836217025966032  0.3270043038006958
  0.0333104805052933  0.3830854889130129  0.0338960332017648
  0.8707331529985598  0.2156009995028813  0.1265163613436903
  0.9554721997325973  0.5448036240795131  0.2234071909178234
  0.2951310464390556  0.1168920659963902  0.3228728517478209
  0.5399549058668260  0.6313987697615040  0.3236166497123243
  0.2949796661083457  0.1207060839374481  0.0354777079668946
  0.5468395352817614  0.6255393754062480  0.0407606834658199
  0.2937150855170749  0.3805059751185358  0.0349060453835105
  0.6256401488195563  0.9526282026047105  0.1307260463583597
  0.7059268653318841  0.7956112008163336  0.2192326928619692
  0.8672931192303791  0.7077434861195233  0.1272654984628792
  0.6257430270259717  0.4611784098849524  0.1254728431769184
  0.2979378001864511  0.8769080757266131  0.3179857261826598
  0.3044523837303598  0.8674590556114772  0.0378147787680725
  0.6276506550672242  0.7130309952935051  0.1270004925719633
  0.2224885567621775  0.0301811762630767  0.2268316968739872
  0.5436321503506403  0.3798759509122894  0.0314790966962235
  0.3785322377904597  0.2050962626428828  0.1304079932188061
  0.1335856850991192  0.7058118502008913  0.1296243496827024
  0.7052232585581502  0.0495490680663984  0.2204402018598718
  0.7924427642668616  0.1301350963634603  0.3181841082877899
  0.5377092315241153  0.8739206804859009  0.3174242404759263
  0.7961477246699811  0.1230227477883151  0.0309807547501673
  0.5459767523396450  0.8695969387497352  0.0336065307945953
  0.2072282577843738  0.5419788292493719  0.2243820184266120
  0.9526128984568842  0.2947893967734285  0.2201704496762517
  0.8718774810630718  0.9624754197990256  0.1273033372013219
  0.7130345180976863  0.2886236761777036  0.2224983166218696
  0.4575250881582126  0.2905277095813190  0.2202344651237527
  0.8748423801908779  0.4570171218602584  0.1258167675964630
  0.1277806656212774  0.2080787861563502  0.1274778483150935
  0.7924830963560212  0.6234970774299186  0.0376528518581951
  0.2975240081653062  0.6248523074090494  0.0387144017041540
  0.3848216830627809  0.7097879869013752  0.1274289244661394
  0.3825565390612315  0.4518961651625997  0.1244171486037369
  0.7924989372995166  0.3784776884309098  0.3212619102798658
  0.7906424157966789  0.3775544735092419  0.0363354318299368
  0.9558869718104984  0.0511319708782763  0.2211004496856283
  0.4577502232252206  0.7969477794345914  0.2237495504741182
  0.2115698532198949  0.7984364491384334  0.2244089375769647
  0.4622948514311742  0.0319863000687802  0.2214779897685925
 
  0.00000000E+00  0.00000000E+00  0.00000000E+00
  0.00000000E+00  0.00000000E+00  0.00000000E+00
  0.00000000E+00  0.00000000E+00  0.00000000E+00
  0.00000000E+00  0.00000000E+00  0.00000000E+00
  0.00000000E+00  0.00000000E+00  0.00000000E+00
  0.00000000E+00  0.00000000E+00  0.00000000E+00
  0.00000000E+00  0.00000000E+00  0.00000000E+00
  0.00000000E+00  0.00000000E+00  0.00000000E+00
  0.00000000E+00  0.00000000E+00  0.00000000E+00
  0.00000000E+00  0.00000000E+00  0.00000000E+00
  0.00000000E+00  0.00000000E+00  0.00000000E+00
  0.00000000E+00  0.00000000E+00  0.00000000E+00
  0.00000000E+00  0.00000000E+00  0.00000000E+00
  0.00000000E+00  0.00000000E+00  0.00000000E+00
  0.00000000E+00  0.00000000E+00  0.00000000E+00
  0.00000000E+00  0.00000000E+00  0.00000000E+00
  0.00000000E+00  0.00000000E+00  0.00000000E+00
  0.00000000E+00  0.00000000E+00  0.00000000E+00
  0.00000000E+00  0.00000000E+00  0.00000000E+00
  0.00000000E+00  0.00000000E+00  0.00000000E+00
  0.00000000E+00  0.00000000E+00  0.00000000E+00
  0.00000000E+00  0.00000000E+00  0.00000000E+00
  0.00000000E+00  0.00000000E+00  0.00000000E+00
  0.00000000E+00  0.00000000E+00  0.00000000E+00
  0.00000000E+00  0.00000000E+00  0.00000000E+00
  0.00000000E+00  0.00000000E+00  0.00000000E+00
  0.00000000E+00  0.00000000E+00  0.00000000E+00
  0.00000000E+00  0.00000000E+00  0.00000000E+00
  0.00000000E+00  0.00000000E+00  0.00000000E+00
  0.00000000E+00  0.00000000E+00  0.00000000E+00
  0.00000000E+00  0.00000000E+00  0.00000000E+00
  0.00000000E+00  0.00000000E+00  0.00000000E+00
  0.00000000E+00  0.00000000E+00  0.00000000E+00
  0.00000000E+00  0.00000000E+00  0.00000000E+00
  0.00000000E+00  0.00000000E+00  0.00000000E+00
  0.00000000E+00  0.00000000E+00  0.00000000E+00
  0.00000000E+00  0.00000000E+00  0.00000000E+00
  0.00000000E+00  0.00000000E+00  0.00000000E+00
  0.00000000E+00  0.00000000E+00  0.00000000E+00
  0.00000000E+00  0.00000000E+00  0.00000000E+00
  0.00000000E+00  0.00000000E+00  0.00000000E+00
  0.00000000E+00  0.00000000E+00  0.00000000E+00
  0.00000000E+00  0.00000000E+00  0.00000000E+00
  0.00000000E+00  0.00000000E+00  0.00000000E+00
  0.00000000E+00  0.00000000E+00  0.00000000E+00
  0.00000000E+00  0.00000000E+00  0.00000000E+00
  0.00000000E+00  0.00000000E+00  0.00000000E+00
  0.00000000E+00  0.00000000E+00  0.00000000E+00
  0.00000000E+00  0.00000000E+00  0.00000000E+00
  0.00000000E+00  0.00000000E+00  0.00000000E+00
  0.00000000E+00  0.00000000E+00  0.00000000E+00
  0.00000000E+00  0.00000000E+00  0.00000000E+00
  0.00000000E+00  0.00000000E+00  0.00000000E+00
  0.00000000E+00  0.00000000E+00  0.00000000E+00
  0.00000000E+00  0.00000000E+00  0.00000000E+00
  0.00000000E+00  0.00000000E+00  0.00000000E+00
  0.00000000E+00  0.00000000E+00  0.00000000E+00
  0.00000000E+00  0.00000000E+00  0.00000000E+00
  0.00000000E+00  0.00000000E+00  0.00000000E+00
  0.00000000E+00  0.00000000E+00  0.00000000E+00
  0.00000000E+00  0.00000000E+00  0.00000000E+00
  0.00000000E+00  0.00000000E+00  0.00000000E+00
  0.00000000E+00  0.00000000E+00  0.00000000E+00
  0.00000000E+00  0.00000000E+00  0.00000000E+00
  0.00000000E+00  0.00000000E+00  0.00000000E+00
  0.00000000E+00  0.00000000E+00  0.00000000E+00
  0.00000000E+00  0.00000000E+00  0.00000000E+00
  0.00000000E+00  0.00000000E+00  0.00000000E+00
  0.00000000E+00  0.00000000E+00  0.00000000E+00
  0.00000000E+00  0.00000000E+00  0.00000000E+00
  0.00000000E+00  0.00000000E+00  0.00000000E+00
  0.00000000E+00  0.00000000E+00  0.00000000E+00
  0.00000000E+00  0.00000000E+00  0.00000000E+00
  0.00000000E+00  0.00000000E+00  0.00000000E+00
  0.00000000E+00  0.00000000E+00  0.00000000E+00
  0.00000000E+00  0.00000000E+00  0.00000000E+00
  0.00000000E+00  0.00000000E+00  0.00000000E+00
  0.00000000E+00  0.00000000E+00  0.00000000E+00
  0.00000000E+00  0.00000000E+00  0.00000000E+00
  0.00000000E+00  0.00000000E+00  0.00000000E+00
