10.76                                   
   1.00000000000000     
    10.7600002288999992    0.0000000000000000    0.0000000000000000
     5.3800001143999996    9.3184335428999994    0.0000000000000000
     0.0000000000000000    0.0000000000000000   22.0000000000000000
   Pt   Fe   Co   Cu   Ni   H 
    32    13    10    13    12     1
Selective dynamics
Direct
  0.7869050188530250  0.8776673179452413  0.3161611268697399   T   T   T
  0.0425609223451303  0.8818104977167519  0.3134345307546735   T   T   T
  0.2801769855012910  0.3794326363480237  0.3178154871802829   T   T   T
  0.8759593291946134  0.9634712156974095  0.4191365039117825   T   T   T
  0.1207678241535732  0.4627637099126613  0.4236087553367258   T   T   T
  0.1255375367666283  0.9599158856492964  0.4179744923952591   T   T   T
  0.8764989737252965  0.4559033541628646  0.4226941717818886   T   T   T
  0.3718498983828761  0.9608261408253815  0.4174320996535439   T   T   T
  0.8738979230055155  0.2106116888051189  0.4172634776604699   T   T   T
  0.1263182437000616  0.2110716665581862  0.4191866759100845   T   T   T
  0.6227295282171714  0.9638287739770932  0.4224938526259915   T   T   T
  0.8776656398372624  0.7082670551144408  0.4253465651672544   T   T   T
  0.3740664971353495  0.2091136231090464  0.4212869355587249   T   T   T
  0.3761054016866757  0.7116782408211735  0.4200581020919147   T   T   T
  0.6263956621412707  0.4609913796726852  0.4191128428611028   T   T   T
  0.1243489334439102  0.7102824799349018  0.4222876272761852   T   T   T
  0.6252137750734647  0.2105465428210686  0.4189942223003288   T   T   T
  0.5484173291189939  0.3744996675034232  0.3159012314854336   T   T   T
  0.5350819979388665  0.1235351603702850  0.3141773522576809   T   T   T
  0.5479267310515752  0.1232892167026662  0.0438354440136379   F   F   F
  0.1193453373624038  0.4597245861096511  0.1287449583545452   F   F   F
  0.0441927238002516  0.1361210789266203  0.3129193036744042   T   T   T
  0.0408040871490059  0.1311498911028011  0.0353636510090922   F   F   F
  0.1313044783091684  0.9579990200822763  0.1330364317545474   F   F   F
  0.3746595719143058  0.4604652394988060  0.4223717960403799   T   T   T
  0.4554859481779090  0.5468658091233323  0.2192060685090880   F   F   F
  0.6218590929185541  0.7082533964462518  0.4228581127133247   T   T   T
  0.9556912742960080  0.7873506540045199  0.2205031624227303   F   F   F
  0.7948968706240594  0.6232475523697285  0.3185686123139939   T   T   T
  0.2908200208910682  0.6303595007486544  0.3169453532446831   T   T   T
  0.2012375110298592  0.2788553671104808  0.2253960259409098   F   F   F
  0.7053132991228281  0.5507170639758527  0.2210761596681792   F   F   F
  0.0406338181448887  0.6305484229851537  0.3231931984209062   T   T   T
  0.7954783082485406  0.8611238289308787  0.0457152006545485   F   F   F
  0.0575212550804594  0.8641789042575354  0.0409535455772740   F   F   F
  0.0456084242478454  0.6318179268537989  0.0403526911181800   F   F   F
  0.6278305598418541  0.2253448316750593  0.1304824814136367   F   F   F
  0.3825655044668324  0.9535177246255060  0.1314263805090903   F   F   F
  0.0355335424430939  0.3837339598735648  0.3225051894893883   T   T   T
  0.0260615386681806  0.3810885896595479  0.0403102601590888   F   F   F
  0.8723711723195962  0.2151287605659249  0.1298020397499968   F   F   F
  0.9547335530667951  0.5442973253336660  0.2239073203045479   F   F   F
  0.2981400689760063  0.1146245292938479  0.3198117461970763   T   T   T
  0.5408322552906820  0.6279453986086913  0.3207129207395600   T   T   T
  0.2949751593484535  0.1163516447918553  0.0426677318909086   F   F   F
  0.5497857468387153  0.6253450526821567  0.0461306137818198   F   F   F
  0.2969566052389681  0.3823652154298856  0.0422564458500005   F   F   F
  0.6249458186425088  0.9474812472239122  0.1336582942090914   F   F   F
  0.7073783254117956  0.7925741239553403  0.2204095770727292   F   F   F
  0.8643637461216613  0.7029606029106716  0.1299859167545421   F   F   F
  0.6269787784890184  0.4592523668595234  0.1284489634045443   F   F   F
  0.2983901503780997  0.8738370153314140  0.3174333081611392   T   T   T
  0.3071779756071464  0.8685022953526769  0.0426992808000008   F   F   F
  0.6259846636109003  0.7158394751425234  0.1294188900181794   F   F   F
  0.2263697746008830  0.0265762640963061  0.2277658617318181   F   F   F
  0.5422786776051893  0.3823649547208277  0.0372911256318176   F   F   F
  0.3770236217526488  0.2055569132388655  0.1342270989136338   F   F   F
  0.1386540919502792  0.7046558401978444  0.1337982367227255   F   F   F
  0.7044384733601134  0.0510072048817847  0.2203902870818197   F   F   F
  0.7930883644820107  0.1289766667085998  0.3153797748128238   T   T   T
  0.5397758070328759  0.8716993053230848  0.3171938630773966   T   T   T
  0.7964640097093465  0.1229298524077365  0.0375270880681811   F   F   F
  0.5453781290973083  0.8713405885677545  0.0381163191590943   F   F   F
  0.2079968609143066  0.5423612536627189  0.2238731068772708   F   F   F
  0.9502517692622092  0.2988565663079612  0.2218493459999991   F   F   F
  0.8721394008204939  0.9645445904637313  0.1305576548363661   F   F   F
  0.7160608076910577  0.2907946614444299  0.2240872102636331   F   F   F
  0.4572063303243468  0.2931434561747039  0.2211508691681843   F   F   F
  0.8746667074118193  0.4568803762026974  0.1294246137636392   F   F   F
  0.1274815274220984  0.2065411393920868  0.1296872253999979   F   F   F
  0.7912047277638123  0.6211097396096008  0.0422462150454521   F   F   F
  0.2978218131850454  0.6268259632060662  0.0450505997681816   F   F   F
  0.3863157406502253  0.7128529518634892  0.1302027574090943   F   F   F
  0.3822704936785541  0.4518886614165325  0.1282433244909100   F   F   F
  0.7931067185655623  0.3806339709030614  0.3192763568706279   T   T   T
  0.7914440065378301  0.3765222275125097  0.0417798686954569   F   F   F
  0.9554123354930013  0.0542452715977291  0.2215384381590937   F   F   F
  0.4587321815542893  0.7962888195681401  0.2253854676772704   F   F   F
  0.2158448670038950  0.7978226494907545  0.2248111195227267   F   F   F
  0.4616344529792542  0.0286802995342086  0.2228021754681819   F   F   F
  0.6986191643649781  0.8099587113023234  0.4677019862119441   T   T   T
 
  0.00000000E+00  0.00000000E+00  0.00000000E+00
  0.00000000E+00  0.00000000E+00  0.00000000E+00
  0.00000000E+00  0.00000000E+00  0.00000000E+00
  0.00000000E+00  0.00000000E+00  0.00000000E+00
  0.00000000E+00  0.00000000E+00  0.00000000E+00
  0.00000000E+00  0.00000000E+00  0.00000000E+00
  0.00000000E+00  0.00000000E+00  0.00000000E+00
  0.00000000E+00  0.00000000E+00  0.00000000E+00
  0.00000000E+00  0.00000000E+00  0.00000000E+00
  0.00000000E+00  0.00000000E+00  0.00000000E+00
  0.00000000E+00  0.00000000E+00  0.00000000E+00
  0.00000000E+00  0.00000000E+00  0.00000000E+00
  0.00000000E+00  0.00000000E+00  0.00000000E+00
  0.00000000E+00  0.00000000E+00  0.00000000E+00
  0.00000000E+00  0.00000000E+00  0.00000000E+00
  0.00000000E+00  0.00000000E+00  0.00000000E+00
  0.00000000E+00  0.00000000E+00  0.00000000E+00
  0.00000000E+00  0.00000000E+00  0.00000000E+00
  0.00000000E+00  0.00000000E+00  0.00000000E+00
  0.00000000E+00  0.00000000E+00  0.00000000E+00
  0.00000000E+00  0.00000000E+00  0.00000000E+00
  0.00000000E+00  0.00000000E+00  0.00000000E+00
  0.00000000E+00  0.00000000E+00  0.00000000E+00
  0.00000000E+00  0.00000000E+00  0.00000000E+00
  0.00000000E+00  0.00000000E+00  0.00000000E+00
  0.00000000E+00  0.00000000E+00  0.00000000E+00
  0.00000000E+00  0.00000000E+00  0.00000000E+00
  0.00000000E+00  0.00000000E+00  0.00000000E+00
  0.00000000E+00  0.00000000E+00  0.00000000E+00
  0.00000000E+00  0.00000000E+00  0.00000000E+00
  0.00000000E+00  0.00000000E+00  0.00000000E+00
  0.00000000E+00  0.00000000E+00  0.00000000E+00
  0.00000000E+00  0.00000000E+00  0.00000000E+00
  0.00000000E+00  0.00000000E+00  0.00000000E+00
  0.00000000E+00  0.00000000E+00  0.00000000E+00
  0.00000000E+00  0.00000000E+00  0.00000000E+00
  0.00000000E+00  0.00000000E+00  0.00000000E+00
  0.00000000E+00  0.00000000E+00  0.00000000E+00
  0.00000000E+00  0.00000000E+00  0.00000000E+00
  0.00000000E+00  0.00000000E+00  0.00000000E+00
  0.00000000E+00  0.00000000E+00  0.00000000E+00
  0.00000000E+00  0.00000000E+00  0.00000000E+00
  0.00000000E+00  0.00000000E+00  0.00000000E+00
  0.00000000E+00  0.00000000E+00  0.00000000E+00
  0.00000000E+00  0.00000000E+00  0.00000000E+00
  0.00000000E+00  0.00000000E+00  0.00000000E+00
  0.00000000E+00  0.00000000E+00  0.00000000E+00
  0.00000000E+00  0.00000000E+00  0.00000000E+00
  0.00000000E+00  0.00000000E+00  0.00000000E+00
  0.00000000E+00  0.00000000E+00  0.00000000E+00
  0.00000000E+00  0.00000000E+00  0.00000000E+00
  0.00000000E+00  0.00000000E+00  0.00000000E+00
  0.00000000E+00  0.00000000E+00  0.00000000E+00
  0.00000000E+00  0.00000000E+00  0.00000000E+00
  0.00000000E+00  0.00000000E+00  0.00000000E+00
  0.00000000E+00  0.00000000E+00  0.00000000E+00
  0.00000000E+00  0.00000000E+00  0.00000000E+00
  0.00000000E+00  0.00000000E+00  0.00000000E+00
  0.00000000E+00  0.00000000E+00  0.00000000E+00
  0.00000000E+00  0.00000000E+00  0.00000000E+00
  0.00000000E+00  0.00000000E+00  0.00000000E+00
  0.00000000E+00  0.00000000E+00  0.00000000E+00
  0.00000000E+00  0.00000000E+00  0.00000000E+00
  0.00000000E+00  0.00000000E+00  0.00000000E+00
  0.00000000E+00  0.00000000E+00  0.00000000E+00
  0.00000000E+00  0.00000000E+00  0.00000000E+00
  0.00000000E+00  0.00000000E+00  0.00000000E+00
  0.00000000E+00  0.00000000E+00  0.00000000E+00
  0.00000000E+00  0.00000000E+00  0.00000000E+00
  0.00000000E+00  0.00000000E+00  0.00000000E+00
  0.00000000E+00  0.00000000E+00  0.00000000E+00
  0.00000000E+00  0.00000000E+00  0.00000000E+00
  0.00000000E+00  0.00000000E+00  0.00000000E+00
  0.00000000E+00  0.00000000E+00  0.00000000E+00
  0.00000000E+00  0.00000000E+00  0.00000000E+00
  0.00000000E+00  0.00000000E+00  0.00000000E+00
  0.00000000E+00  0.00000000E+00  0.00000000E+00
  0.00000000E+00  0.00000000E+00  0.00000000E+00
  0.00000000E+00  0.00000000E+00  0.00000000E+00
  0.00000000E+00  0.00000000E+00  0.00000000E+00
  0.00000000E+00  0.00000000E+00  0.00000000E+00
