Pt111                                   
   1.00000000000000     
    11.2227001190000006    0.0000000000000000    0.0000000000000000
     5.6113500595000003    9.7191434021000003    0.0000000000000000
     0.0000000000000000    0.0000000000000000   22.0000000000000000
   Pt   H 
    80    17
Selective dynamics
Direct
  0.7852472525844831  0.8688513791118098  0.3262346769454538   F   F   F
  0.0351957013833371  0.8688594017838440  0.3261648822909109   F   F   F
  0.0349439504644735  0.6192379494986753  0.3262774173090932   F   F   F
  0.7851060377702339  0.8688443066984064  0.0209905320136343   F   F   F
  0.0347813230033225  0.8688690641991528  0.0211832648954555   F   F   F
  0.0348681064987559  0.6190655831150664  0.0212463320818159   F   F   F
  0.6183734178711546  0.2022309365016000  0.1244920147454565   F   F   F
  0.3684010101234563  0.9523703102785817  0.1245295042409111   F   F   F
  0.0350870780895036  0.3692138208419351  0.3264480234999994   F   F   F
  0.0352624719219534  0.3684957326204454  0.0215819066909120   F   F   F
  0.8686684787799024  0.2020814949880929  0.1244328877136383   F   F   F
  0.9514785403014514  0.5358074038782874  0.2248368864454520   F   F   F
  0.2851929258397234  0.1188723166025483  0.3263552936999972   F   F   F
  0.5358126184256520  0.6189583619992902  0.3255458856000004   F   F   F
  0.2847187565192755  0.3686469757536273  0.3258186275590944   F   F   F
  0.2842734186958680  0.1192867356653551  0.0216468839545456   F   F   F
  0.5349627789008125  0.6188795708066550  0.0211186466590902   F   F   F
  0.2849309044785784  0.3689813055052937  0.0213684164636376   F   F   F
  0.6184245812484619  0.9523163647014528  0.1245784872318154   F   F   F
  0.7018094502514529  0.7856097791447567  0.2246804395727295   F   F   F
  0.8684089818784315  0.7024312907477963  0.1245013996227300   F   F   F
  0.6185605940970618  0.4522334603634235  0.1242776133909089   F   F   F
  0.2847563715023611  0.8696940628917602  0.3256812359727306   F   F   F
  0.2850116507074603  0.8689376459117995  0.0210998156818150   F   F   F
  0.6183462775332842  0.7024899500736623  0.1243927375772742   F   F   F
  0.2020220161747091  0.0351868039138239  0.2249153326136337   F   F   F
  0.8690739641942926  0.9520798447732162  0.4319735646318179   F   F   F
  0.1194210566754847  0.4524384652921043  0.4321952986136353   F   F   F
  0.1195691380972406  0.9512218626800433  0.4321066954545429   F   F   F
  0.8680849106707385  0.4523692427307964  0.4324197385545432   F   F   F
  0.3690238147703795  0.9512525859843137  0.4319750726090916   F   F   F
  0.8682081615159092  0.2026243663792897  0.4319961484090911   F   F   F
  0.1186726712055801  0.2022137061148186  0.4320414892454565   F   F   F
  0.6188231845240040  0.9520239212234216  0.4322522585500010   F   F   F
  0.8689366189526382  0.7019919899860554  0.4322670413636374   F   F   F
  0.3689569793191794  0.2026916972615425  0.4319050200181849   F   F   F
  0.3710500646635069  0.6979501658278124  0.4299980087181794   F   F   F
  0.6149067749221189  0.4541692179216383  0.4304128378090937   F   F   F
  0.1210721853844419  0.7010816353041704  0.4323330139636354   F   F   F
  0.6179150934607520  0.2042730332151521  0.4322521660772694   F   F   F
  0.5355860057342028  0.3686468232916340  0.3255032469681822   F   F   F
  0.5350001073152342  0.3689703628742791  0.0212846847045469   F   F   F
  0.5356077607275580  0.1186678889366704  0.3262474807999993   F   F   F
  0.5352490564214065  0.1187761352148158  0.0213964940000011   F   F   F
  0.8686037680751113  0.4521942495930631  0.1244697644636332   F   F   F
  0.1183734049402219  0.4522679927790989  0.1246257033636340   F   F   F
  0.0352885656622277  0.1188401422959160  0.3262986576636351   F   F   F
  0.0352969659960962  0.1191684952862957  0.0214163341090909   F   F   F
  0.1184162485362705  0.9522907546667341  0.1244020225318181   F   F   F
  0.3711439594143897  0.4542213702028661  0.4302693195636351   F   F   F
  0.4518747575929254  0.5356340091633172  0.2242013306409092   F   F   F
  0.6179327246020776  0.7009611383476440  0.4327313682181853   F   F   F
  0.3683987784530913  0.2022728227752282  0.1245787950999997   F   F   F
  0.1184174819592414  0.2022999652289457  0.1252853173636339   F   F   F
  0.9516069156135387  0.7856199340726064  0.2246584265045470   F   F   F
  0.7850927411844282  0.6190150261081726  0.3263696711545450   F   F   F
  0.2849468412816734  0.6190259621851055  0.3254451123136377   F   F   F
  0.7849642338638532  0.6191451382227555  0.0212805485227250   F   F   F
  0.2849429337722782  0.6190580830302395  0.0211713164363658   F   F   F
  0.3681629512870543  0.7026771128641229  0.1243086473909116   F   F   F
  0.3682767810146288  0.4521806210051835  0.1244044658954522   F   F   F
  0.2017719977105230  0.2858873875757055  0.2249898774545471   F   F   F
  0.7861500823040330  0.3686113415741872  0.3258070612090904   F   F   F
  0.7850138958111899  0.3689260070414520  0.0211308169681814   F   F   F
  0.9517710230332881  0.0356625192015514  0.2247187246863618   F   F   F
  0.4521276864810488  0.7853850199854762  0.2245679088909114   F   F   F
  0.7016866134738038  0.5358547355597949  0.2244356216590901   F   F   F
  0.2017415775960245  0.7854544386237308  0.2244855374090875   F   F   F
  0.4518827742418452  0.0355043268962802  0.2248658282090901   F   F   F
  0.1182711643440228  0.7022504157748415  0.1244149029772714   F   F   F
  0.7018687005215867  0.0355285490514916  0.2246672282136331   F   F   F
  0.7853018490356476  0.1188450498374607  0.3261363745954569   F   F   F
  0.5355947988522800  0.8686687698502098  0.3263136651500034   F   F   F
  0.7849963766426384  0.1187994409312338  0.0212954701818191   F   F   F
  0.5352619687926463  0.8688628022378353  0.0213263922909093   F   F   F
  0.2016353706438991  0.5358380162880110  0.2246348391590942   F   F   F
  0.9512828953491663  0.2859803501200986  0.2249310865500007   F   F   F
  0.8683574806222154  0.9521772839569849  0.1244473141590916   F   F   F
  0.7017240347111127  0.2856291751802118  0.2244699272727289   F   F   F
  0.4520918908680329  0.2856312341167992  0.2246544358272757   F   F   F
  0.4733586677935691  0.5564924107232940  0.5691237025363662   T   T   T
  0.5108431483617651  0.5880858192055314  0.5838047256090910   T   T   T
  0.7006281944061428  0.5343323937146494  0.4727745007227284   F   F   F
  0.2056747725241550  0.7833392927565015  0.4723816446954530   F   F   F
  0.4516539529686412  0.7832424864371461  0.4725184738272716   F   F   F
  0.7013403741347162  0.7849464119391030  0.4728800483181814   F   F   F
  0.9528465602412126  0.7854404604165595  0.4725114819863663   F   F   F
  0.2063283462547858  0.5337918999300939  0.4723632714863655   F   F   F
  0.9519687300347286  0.5351505118934838  0.4730526488454529   F   F   F
  0.2023497579665587  0.2856257052036284  0.4726131596772731   F   F   F
  0.4506154192014051  0.2890373694756931  0.4721543697909070   F   F   F
  0.7003951368906201  0.2885920441603886  0.4724946728318216   F   F   F
  0.9516207407274351  0.2865495485124967  0.4730126585727277   F   F   F
  0.2022794887615618  0.0352496205916637  0.4726827736772705   F   F   F
  0.4521740922822062  0.0356526748669168  0.4725682577363628   F   F   F
  0.7016892608615066  0.0361054037050437  0.4722659090363663   F   F   F
  0.9523575887341877  0.0350233912513787  0.4725967093863659   F   F   F
 
  0.00000000E+00  0.00000000E+00  0.00000000E+00
  0.00000000E+00  0.00000000E+00  0.00000000E+00
  0.00000000E+00  0.00000000E+00  0.00000000E+00
  0.00000000E+00  0.00000000E+00  0.00000000E+00
  0.00000000E+00  0.00000000E+00  0.00000000E+00
  0.00000000E+00  0.00000000E+00  0.00000000E+00
  0.00000000E+00  0.00000000E+00  0.00000000E+00
  0.00000000E+00  0.00000000E+00  0.00000000E+00
  0.00000000E+00  0.00000000E+00  0.00000000E+00
  0.00000000E+00  0.00000000E+00  0.00000000E+00
  0.00000000E+00  0.00000000E+00  0.00000000E+00
  0.00000000E+00  0.00000000E+00  0.00000000E+00
  0.00000000E+00  0.00000000E+00  0.00000000E+00
  0.00000000E+00  0.00000000E+00  0.00000000E+00
  0.00000000E+00  0.00000000E+00  0.00000000E+00
  0.00000000E+00  0.00000000E+00  0.00000000E+00
  0.00000000E+00  0.00000000E+00  0.00000000E+00
  0.00000000E+00  0.00000000E+00  0.00000000E+00
  0.00000000E+00  0.00000000E+00  0.00000000E+00
  0.00000000E+00  0.00000000E+00  0.00000000E+00
  0.00000000E+00  0.00000000E+00  0.00000000E+00
  0.00000000E+00  0.00000000E+00  0.00000000E+00
  0.00000000E+00  0.00000000E+00  0.00000000E+00
  0.00000000E+00  0.00000000E+00  0.00000000E+00
  0.00000000E+00  0.00000000E+00  0.00000000E+00
  0.00000000E+00  0.00000000E+00  0.00000000E+00
  0.00000000E+00  0.00000000E+00  0.00000000E+00
  0.00000000E+00  0.00000000E+00  0.00000000E+00
  0.00000000E+00  0.00000000E+00  0.00000000E+00
  0.00000000E+00  0.00000000E+00  0.00000000E+00
  0.00000000E+00  0.00000000E+00  0.00000000E+00
  0.00000000E+00  0.00000000E+00  0.00000000E+00
  0.00000000E+00  0.00000000E+00  0.00000000E+00
  0.00000000E+00  0.00000000E+00  0.00000000E+00
  0.00000000E+00  0.00000000E+00  0.00000000E+00
  0.00000000E+00  0.00000000E+00  0.00000000E+00
  0.00000000E+00  0.00000000E+00  0.00000000E+00
  0.00000000E+00  0.00000000E+00  0.00000000E+00
  0.00000000E+00  0.00000000E+00  0.00000000E+00
  0.00000000E+00  0.00000000E+00  0.00000000E+00
  0.00000000E+00  0.00000000E+00  0.00000000E+00
  0.00000000E+00  0.00000000E+00  0.00000000E+00
  0.00000000E+00  0.00000000E+00  0.00000000E+00
  0.00000000E+00  0.00000000E+00  0.00000000E+00
  0.00000000E+00  0.00000000E+00  0.00000000E+00
  0.00000000E+00  0.00000000E+00  0.00000000E+00
  0.00000000E+00  0.00000000E+00  0.00000000E+00
  0.00000000E+00  0.00000000E+00  0.00000000E+00
  0.00000000E+00  0.00000000E+00  0.00000000E+00
  0.00000000E+00  0.00000000E+00  0.00000000E+00
  0.00000000E+00  0.00000000E+00  0.00000000E+00
  0.00000000E+00  0.00000000E+00  0.00000000E+00
  0.00000000E+00  0.00000000E+00  0.00000000E+00
  0.00000000E+00  0.00000000E+00  0.00000000E+00
  0.00000000E+00  0.00000000E+00  0.00000000E+00
  0.00000000E+00  0.00000000E+00  0.00000000E+00
  0.00000000E+00  0.00000000E+00  0.00000000E+00
  0.00000000E+00  0.00000000E+00  0.00000000E+00
  0.00000000E+00  0.00000000E+00  0.00000000E+00
  0.00000000E+00  0.00000000E+00  0.00000000E+00
  0.00000000E+00  0.00000000E+00  0.00000000E+00
  0.00000000E+00  0.00000000E+00  0.00000000E+00
  0.00000000E+00  0.00000000E+00  0.00000000E+00
  0.00000000E+00  0.00000000E+00  0.00000000E+00
  0.00000000E+00  0.00000000E+00  0.00000000E+00
  0.00000000E+00  0.00000000E+00  0.00000000E+00
  0.00000000E+00  0.00000000E+00  0.00000000E+00
  0.00000000E+00  0.00000000E+00  0.00000000E+00
  0.00000000E+00  0.00000000E+00  0.00000000E+00
  0.00000000E+00  0.00000000E+00  0.00000000E+00
  0.00000000E+00  0.00000000E+00  0.00000000E+00
  0.00000000E+00  0.00000000E+00  0.00000000E+00
  0.00000000E+00  0.00000000E+00  0.00000000E+00
  0.00000000E+00  0.00000000E+00  0.00000000E+00
  0.00000000E+00  0.00000000E+00  0.00000000E+00
  0.00000000E+00  0.00000000E+00  0.00000000E+00
  0.00000000E+00  0.00000000E+00  0.00000000E+00
  0.00000000E+00  0.00000000E+00  0.00000000E+00
  0.00000000E+00  0.00000000E+00  0.00000000E+00
  0.00000000E+00  0.00000000E+00  0.00000000E+00
  0.00000000E+00  0.00000000E+00  0.00000000E+00
  0.00000000E+00  0.00000000E+00  0.00000000E+00
  0.00000000E+00  0.00000000E+00  0.00000000E+00
  0.00000000E+00  0.00000000E+00  0.00000000E+00
  0.00000000E+00  0.00000000E+00  0.00000000E+00
  0.00000000E+00  0.00000000E+00  0.00000000E+00
  0.00000000E+00  0.00000000E+00  0.00000000E+00
  0.00000000E+00  0.00000000E+00  0.00000000E+00
  0.00000000E+00  0.00000000E+00  0.00000000E+00
  0.00000000E+00  0.00000000E+00  0.00000000E+00
  0.00000000E+00  0.00000000E+00  0.00000000E+00
  0.00000000E+00  0.00000000E+00  0.00000000E+00
  0.00000000E+00  0.00000000E+00  0.00000000E+00
  0.00000000E+00  0.00000000E+00  0.00000000E+00
  0.00000000E+00  0.00000000E+00  0.00000000E+00
  0.00000000E+00  0.00000000E+00  0.00000000E+00
  0.00000000E+00  0.00000000E+00  0.00000000E+00
