10.86                                   
   1.00000000000000     
    10.8599996566999994    0.0000000000000000    0.0000000000000000
     5.4299998282999997    9.4050355878000005    0.0000000000000000
     0.0000000000000000    0.0000000000000000   22.0000000000000000
   Pt   Fe   Co   Cu   Ni   H 
    32    13    10    13    12     1
Selective dynamics
Direct
  0.7849694782611891  0.8793790290520960  0.3147724371772753   F   F   F
  0.0426340601125759  0.8815211066244757  0.3125870696590880   F   F   F
  0.2797552111208788  0.3807279939849337  0.3169739931772710   F   F   F
  0.8745645619545925  0.9632005374388015  0.4175435570863613   F   F   F
  0.1205669938337692  0.4642459516329538  0.4220367138590930   F   F   F
  0.1260045045998837  0.9612307917395881  0.4162726511500026   F   F   F
  0.8797048775358860  0.4563771540926211  0.4231309121590883   F   F   F
  0.3732662271741702  0.9612832964425593  0.4165102819545439   F   F   F
  0.8754229183946265  0.2085268449854709  0.4153628735090891   F   F   F
  0.1264421363179480  0.2120321139227599  0.4177252339090884   F   F   F
  0.6244565126395756  0.9609958338514062  0.4188176491181821   F   F   F
  0.8753126425314832  0.7130288064511916  0.4209447272500029   F   F   F
  0.3752572213634267  0.2086294849798662  0.4195133203409114   F   F   F
  0.3734772206369144  0.7147180699475015  0.4185788311227299   F   F   F
  0.6243900302329024  0.4595200392124141  0.4198513034181843   F   F   F
  0.1243323103283487  0.7101336489958214  0.4207313101272732   F   F   F
  0.6254868185059266  0.2101001849225526  0.4170856137318211   F   F   F
  0.5483345491595202  0.3765722218100009  0.3154339080045432   F   F   F
  0.5339524606747545  0.1256914195873335  0.3128271260818209   F   F   F
  0.5483883292934877  0.1233734725262678  0.0461674633454550   F   F   F
  0.1189763218456719  0.4584087287125840  0.1298649037999979   F   F   F
  0.0451907183742506  0.1362006223306196  0.3124225145818187   F   F   F
  0.0406657298294206  0.1314986331475723  0.0367327973454579   F   F   F
  0.1309549378495518  0.9578912708619924  0.1339264883772699   F   F   F
  0.3739331803019823  0.4609973867854578  0.4207498230000013   F   F   F
  0.4556522333904454  0.5480667654342994  0.2186221383272695   F   F   F
  0.6203896626851346  0.7169000363003590  0.4213542267681802   F   F   F
  0.9546323180157117  0.7862445906948139  0.2204777234045423   F   F   F
  0.7950763800956722  0.6227094224180334  0.3182911112590929   F   F   F
  0.2912483382399529  0.6309079761374932  0.3161626395409058   F   F   F
  0.2002708624331007  0.2770478458561030  0.2260251504045456   F   F   F
  0.7045829241556802  0.5516321129959252  0.2208851499954534   F   F   F
  0.0406255364303689  0.6318083513801938  0.3221991940909064   F   F   F
  0.7955110030430319  0.8609512276384805  0.0480385122272722   F   F   F
  0.0573949397823768  0.8629365884407534  0.0426982104681812   F   F   F
  0.0458753864337567  0.6317424305982726  0.0425419417454549   F   F   F
  0.6283988685906934  0.2264175371289738  0.1318427956090886   F   F   F
  0.3823587953945804  0.9533284287228625  0.1319694655727304   F   F   F
  0.0356561465302718  0.3845118415916531  0.3222190571090877   F   F   F
  0.0268079723616808  0.3797381930306329  0.0416316377136354   F   F   F
  0.8723791053676138  0.2158092365469457  0.1307545436727295   F   F   F
  0.9547024218507971  0.5436382700170128  0.2244670324363653   F   F   F
  0.2987326493940756  0.1150687759654900  0.3196310871363650   F   F   F
  0.5422840031633669  0.6271513915642402  0.3211700916227258   F   F   F
  0.2945049925961882  0.1170356248441848  0.0441488403727277   F   F   F
  0.5519685041016658  0.6240663073846946  0.0467109319272723   F   F   F
  0.2960777314503247  0.3827352514932940  0.0441011896590879   F   F   F
  0.6249515703976343  0.9461887287639286  0.1346385474090894   F   F   F
  0.7073007629469075  0.7919560005877955  0.2206980387772717   F   F   F
  0.8641642368870777  0.7014903972780502  0.1310198486954519   F   F   F
  0.6284097325721945  0.4565427356882950  0.1288810116500017   F   F   F
  0.2981320673630776  0.8738753638913721  0.3172025996045420   F   F   F
  0.3034084821940297  0.8750332447838289  0.0436180695045465   F   F   F
  0.6263955126564014  0.7168699604014037  0.1294389879545434   F   F   F
  0.2282460863355027  0.0251927252999806  0.2279743672272758   F   F   F
  0.5411956632024371  0.3786938250526219  0.0386404366090929   F   F   F
  0.3758860748220698  0.2062408198131820  0.1355179188181808   F   F   F
  0.1391045929531671  0.7049881574824539  0.1351065841363663   F   F   F
  0.7043988531711349  0.0514063915852887  0.2204906319818178   F   F   F
  0.7930497321161951  0.1289553611443282  0.3147947208909088   F   F   F
  0.5392532351829047  0.8719115066015632  0.3163618012090907   F   F   F
  0.7963472328275429  0.1231574992127094  0.0392939661590930   F   F   F
  0.5440945193985200  0.8759385405927063  0.0392459096681819   F   F   F
  0.2079024299005852  0.5431036366120594  0.2237859261272703   F   F   F
  0.9489325326236937  0.3007508570375990  0.2224478204318174   F   F   F
  0.8725112496294898  0.9655798376329443  0.1316447751227301   F   F   F
  0.7171476949159796  0.2914481447423398  0.2245606244909055   F   F   F
  0.4567330680043540  0.2945848388488770  0.2213046886454535   F   F   F
  0.8750294207410079  0.4572868458869976  0.1300096086727294   F   F   F
  0.1269801392207555  0.2054284542959337  0.1306704091090936   F   F   F
  0.7957063935882616  0.6202328764993581  0.0430280211045471   F   F   F
  0.2938692617776510  0.6266274624994352  0.0463221184909060   F   F   F
  0.3850310216699739  0.7148852913243218  0.1298736747000007   F   F   F
  0.3816718202388216  0.4522385150798698  0.1290563122090944   F   F   F
  0.7926303118931699  0.3824172803519730  0.3197873560409121   F   F   F
  0.7947937720711735  0.3739039784455045  0.0430364376636376   F   F   F
  0.9546170343474998  0.0559472075345013  0.2217931839272751   F   F   F
  0.4595337133946984  0.7957272121764092  0.2251697936636390   F   F   F
  0.2181471024034209  0.7973202649150295  0.2249219835909102   F   F   F
  0.4610829538139924  0.0274880027604922  0.2232129655818156   F   F   F
  0.6966851755584855  0.5468522989505331  0.4629161654181851   T   T   T
 
  0.00000000E+00  0.00000000E+00  0.00000000E+00
  0.00000000E+00  0.00000000E+00  0.00000000E+00
  0.00000000E+00  0.00000000E+00  0.00000000E+00
  0.00000000E+00  0.00000000E+00  0.00000000E+00
  0.00000000E+00  0.00000000E+00  0.00000000E+00
  0.00000000E+00  0.00000000E+00  0.00000000E+00
  0.00000000E+00  0.00000000E+00  0.00000000E+00
  0.00000000E+00  0.00000000E+00  0.00000000E+00
  0.00000000E+00  0.00000000E+00  0.00000000E+00
  0.00000000E+00  0.00000000E+00  0.00000000E+00
  0.00000000E+00  0.00000000E+00  0.00000000E+00
  0.00000000E+00  0.00000000E+00  0.00000000E+00
  0.00000000E+00  0.00000000E+00  0.00000000E+00
  0.00000000E+00  0.00000000E+00  0.00000000E+00
  0.00000000E+00  0.00000000E+00  0.00000000E+00
  0.00000000E+00  0.00000000E+00  0.00000000E+00
  0.00000000E+00  0.00000000E+00  0.00000000E+00
  0.00000000E+00  0.00000000E+00  0.00000000E+00
  0.00000000E+00  0.00000000E+00  0.00000000E+00
  0.00000000E+00  0.00000000E+00  0.00000000E+00
  0.00000000E+00  0.00000000E+00  0.00000000E+00
  0.00000000E+00  0.00000000E+00  0.00000000E+00
  0.00000000E+00  0.00000000E+00  0.00000000E+00
  0.00000000E+00  0.00000000E+00  0.00000000E+00
  0.00000000E+00  0.00000000E+00  0.00000000E+00
  0.00000000E+00  0.00000000E+00  0.00000000E+00
  0.00000000E+00  0.00000000E+00  0.00000000E+00
  0.00000000E+00  0.00000000E+00  0.00000000E+00
  0.00000000E+00  0.00000000E+00  0.00000000E+00
  0.00000000E+00  0.00000000E+00  0.00000000E+00
  0.00000000E+00  0.00000000E+00  0.00000000E+00
  0.00000000E+00  0.00000000E+00  0.00000000E+00
  0.00000000E+00  0.00000000E+00  0.00000000E+00
  0.00000000E+00  0.00000000E+00  0.00000000E+00
  0.00000000E+00  0.00000000E+00  0.00000000E+00
  0.00000000E+00  0.00000000E+00  0.00000000E+00
  0.00000000E+00  0.00000000E+00  0.00000000E+00
  0.00000000E+00  0.00000000E+00  0.00000000E+00
  0.00000000E+00  0.00000000E+00  0.00000000E+00
  0.00000000E+00  0.00000000E+00  0.00000000E+00
  0.00000000E+00  0.00000000E+00  0.00000000E+00
  0.00000000E+00  0.00000000E+00  0.00000000E+00
  0.00000000E+00  0.00000000E+00  0.00000000E+00
  0.00000000E+00  0.00000000E+00  0.00000000E+00
  0.00000000E+00  0.00000000E+00  0.00000000E+00
  0.00000000E+00  0.00000000E+00  0.00000000E+00
  0.00000000E+00  0.00000000E+00  0.00000000E+00
  0.00000000E+00  0.00000000E+00  0.00000000E+00
  0.00000000E+00  0.00000000E+00  0.00000000E+00
  0.00000000E+00  0.00000000E+00  0.00000000E+00
  0.00000000E+00  0.00000000E+00  0.00000000E+00
  0.00000000E+00  0.00000000E+00  0.00000000E+00
  0.00000000E+00  0.00000000E+00  0.00000000E+00
  0.00000000E+00  0.00000000E+00  0.00000000E+00
  0.00000000E+00  0.00000000E+00  0.00000000E+00
  0.00000000E+00  0.00000000E+00  0.00000000E+00
  0.00000000E+00  0.00000000E+00  0.00000000E+00
  0.00000000E+00  0.00000000E+00  0.00000000E+00
  0.00000000E+00  0.00000000E+00  0.00000000E+00
  0.00000000E+00  0.00000000E+00  0.00000000E+00
  0.00000000E+00  0.00000000E+00  0.00000000E+00
  0.00000000E+00  0.00000000E+00  0.00000000E+00
  0.00000000E+00  0.00000000E+00  0.00000000E+00
  0.00000000E+00  0.00000000E+00  0.00000000E+00
  0.00000000E+00  0.00000000E+00  0.00000000E+00
  0.00000000E+00  0.00000000E+00  0.00000000E+00
  0.00000000E+00  0.00000000E+00  0.00000000E+00
  0.00000000E+00  0.00000000E+00  0.00000000E+00
  0.00000000E+00  0.00000000E+00  0.00000000E+00
  0.00000000E+00  0.00000000E+00  0.00000000E+00
  0.00000000E+00  0.00000000E+00  0.00000000E+00
  0.00000000E+00  0.00000000E+00  0.00000000E+00
  0.00000000E+00  0.00000000E+00  0.00000000E+00
  0.00000000E+00  0.00000000E+00  0.00000000E+00
  0.00000000E+00  0.00000000E+00  0.00000000E+00
  0.00000000E+00  0.00000000E+00  0.00000000E+00
  0.00000000E+00  0.00000000E+00  0.00000000E+00
  0.00000000E+00  0.00000000E+00  0.00000000E+00
  0.00000000E+00  0.00000000E+00  0.00000000E+00
  0.00000000E+00  0.00000000E+00  0.00000000E+00
  0.00000000E+00  0.00000000E+00  0.00000000E+00
