10.36                                   
   1.00000000000000     
    10.3599996566999994    0.0000000000000000    0.0000000000000000
     5.1799998282999997    8.9720228858999995    0.0000000000000000
     0.0000000000000000    0.0000000000000000   22.0000000000000000
   Pt   Fe   Co   Cu   Ni   H 
    32    13    10    13    12     1
Selective dynamics
Direct
  0.7891601629386790  0.8765893158476447  0.3204645162120515   T   T   T
  0.0412478391362462  0.8833202177354778  0.3178041193069000   T   T   T
  0.2775466081861153  0.3805492834540451  0.3232544946750706   T   T   T
  0.8759535046655021  0.9615214911069682  0.4347793663400815   T   T   T
  0.1277842277336040  0.4590777445967411  0.4377104851888740   T   T   T
  0.1252564139196846  0.9610007443399284  0.4244549788062995   T   T   T
  0.8739075450928058  0.4586197338670648  0.4397340561230743   T   T   T
  0.3759035249076633  0.9601247066526533  0.4251611966457358   T   T   T
  0.8757651192998209  0.2108595788605768  0.4231771053778803   T   T   T
  0.1269144037483012  0.2092855372182250  0.4247469663495339   T   T   T
  0.6261716877601068  0.9604231168242815  0.4267938295635751   T   T   T
  0.8738956424704498  0.7124248553656880  0.4338523563492603   T   T   T
  0.3764715336705686  0.2087655835199384  0.4286450233998784   T   T   T
  0.3768581339046205  0.7111059004747843  0.4264687688049815   T   T   T
  0.6270774170039634  0.4607610208440762  0.4239370573456233   T   T   T
  0.1265806466352070  0.7105618277329440  0.4280989843399183   T   T   T
  0.6264985224771471  0.2098329968954216  0.4230741119584899   T   T   T
  0.5472178743896515  0.3757645696494977  0.3181476295787293   T   T   T
  0.5351061274418638  0.1236900263048250  0.3158445577727863   T   T   T
  0.5458014400089226  0.1234550493780731  0.0359400593772747   F   F   F
  0.1219383108401360  0.4607637042028472  0.1261476945818174   F   F   F
  0.0415479210413584  0.1374674594270542  0.3144382824331553   T   T   T
  0.0426177556592364  0.1297797889737780  0.0304909520954553   F   F   F
  0.1298428761067072  0.9585265795537836  0.1305436315363622   F   F   F
  0.3771124742256156  0.4605279769568851  0.4342650170501229   T   T   T
  0.4536142831861127  0.5450805790169824  0.2185534362818160   F   F   F
  0.6233973462910029  0.7114360743245802  0.4246886818194231   T   T   T
  0.9567679528542641  0.7907913211133391  0.2215395440363608   F   F   F
  0.7950256980970154  0.6199092263300908  0.3202143524818518   T   T   T
  0.2919148040548782  0.6307320602851612  0.3196323752628020   T   T   T
  0.2033968113129916  0.2831573253555248  0.2254814981590911   F   F   F
  0.7079943538448035  0.5476533912460155  0.2203153201272698   F   F   F
  0.0399896690905731  0.6295035761628157  0.3281967142113576   T   T   T
  0.7980538117324372  0.8624341141126948  0.0385159092227241   F   F   F
  0.0552849574256129  0.8673564735473107  0.0343513444545422   F   F   F
  0.0474090248444483  0.6263712164546362  0.0327916081590942   F   F   F
  0.6264571710535165  0.2185083723293815  0.1268634264227302   F   F   F
  0.3829453672912493  0.9548385219640068  0.1285988211636351   F   F   F
  0.0345817400793242  0.3828149784121075  0.3278892786950536   T   T   T
  0.0333104805050652  0.3830854889148227  0.0338960332000013   F   F   F
  0.8707331529917894  0.2156009995070320  0.1265163613454519   F   F   F
  0.9554721997300177  0.5448036240836771  0.2234071909181807   F   F   F
  0.2957737657676571  0.1151229260863362  0.3230427348976026   T   T   T
  0.5400894955757952  0.6310533957077932  0.3222455965529058   T   T   T
  0.2949796661070749  0.1207060839425580  0.0354777079681838   F   F   F
  0.5468395352815776  0.6255393754088701  0.0407606834636383   F   F   F
  0.2937150855157071  0.3805059751201867  0.0349060453818169   F   F   F
  0.6256401488194570  0.9526282026021207  0.1307260463590936   F   F   F
  0.7059268653305040  0.7956112008160545  0.2192326928636348   F   F   F
  0.8672931192344109  0.7077434861182965  0.1272654984636361   F   F   F
  0.6257430270251945  0.4611784098882126  0.1254728431772705   F   F   F
  0.2980158204897027  0.8766328157903717  0.3178696800218589   T   T   T
  0.3044523837364466  0.8674590556084283  0.0378147787681797   F   F   F
  0.6276506550672281  0.7130309952902323  0.1270004925727264   F   F   F
  0.2224885567561898  0.0301811762680160  0.2268316968727291   F   F   F
  0.5436321503495236  0.3798759509136147  0.0314790966954561   F   F   F
  0.3785322377896421  0.2050962626379231  0.1304079932181850   F   F   F
  0.1335856850995540  0.7058118501962269  0.1296243496818192   F   F   F
  0.7052232585528557  0.0495490680701067  0.2204402018590912   F   F   F
  0.7923602676912025  0.1293124669251143  0.3180783714316545   T   T   T
  0.5379497412838543  0.8732335578129539  0.3170261698423450   T   T   T
  0.7961477246739292  0.1230227477835157  0.0309807547499972   F   F   F
  0.5459767523362302  0.8695969387529416  0.0336065307954527   F   F   F
  0.2072282577882945  0.5419788292495227  0.2243820184272707   F   F   F
  0.9526128984599183  0.2947893967765651  0.2201704496772692   F   F   F
  0.8718774810604728  0.9624754198042567  0.1273033371999972   F   F   F
  0.7130345181012316  0.2886236761800518  0.2224983166227261   F   F   F
  0.4575250881556840  0.2905277095867049  0.2202344651227293   F   F   F
  0.8748423801886673  0.4570171218626697  0.1258167675954525   F   F   F
  0.1277806656162355  0.2080787861602431  0.1274778483136387   F   F   F
  0.7924830963535570  0.6234970774306987  0.0376528518590931   F   F   F
  0.2975240081599964  0.6248523074111176  0.0387144017045458   F   F   F
  0.3848216830637057  0.7097879868995918  0.1274289244681839   F   F   F
  0.3825565390611771  0.4518961651637952  0.1244171486045431   F   F   F
  0.7926319377904311  0.3780111101359427  0.3210798717424850   T   T   T
  0.7906424157987573  0.3775544735093703  0.0363354318318159   F   F   F
  0.9558869718144862  0.0511319708759288  0.2211004496863609   F   F   F
  0.4577502232223978  0.7969477794396838  0.2237495504727249   F   F   F
  0.2115698532229970  0.7984364491376823  0.2244089375772731   F   F   F
  0.4622948514299310  0.0319863000740881  0.2214779897681822   F   F   F
  0.9667773468395131  0.5428168310507302  0.4857915584353144   T   T   T
 
  0.00000000E+00  0.00000000E+00  0.00000000E+00
  0.00000000E+00  0.00000000E+00  0.00000000E+00
  0.00000000E+00  0.00000000E+00  0.00000000E+00
  0.00000000E+00  0.00000000E+00  0.00000000E+00
  0.00000000E+00  0.00000000E+00  0.00000000E+00
  0.00000000E+00  0.00000000E+00  0.00000000E+00
  0.00000000E+00  0.00000000E+00  0.00000000E+00
  0.00000000E+00  0.00000000E+00  0.00000000E+00
  0.00000000E+00  0.00000000E+00  0.00000000E+00
  0.00000000E+00  0.00000000E+00  0.00000000E+00
  0.00000000E+00  0.00000000E+00  0.00000000E+00
  0.00000000E+00  0.00000000E+00  0.00000000E+00
  0.00000000E+00  0.00000000E+00  0.00000000E+00
  0.00000000E+00  0.00000000E+00  0.00000000E+00
  0.00000000E+00  0.00000000E+00  0.00000000E+00
  0.00000000E+00  0.00000000E+00  0.00000000E+00
  0.00000000E+00  0.00000000E+00  0.00000000E+00
  0.00000000E+00  0.00000000E+00  0.00000000E+00
  0.00000000E+00  0.00000000E+00  0.00000000E+00
  0.00000000E+00  0.00000000E+00  0.00000000E+00
  0.00000000E+00  0.00000000E+00  0.00000000E+00
  0.00000000E+00  0.00000000E+00  0.00000000E+00
  0.00000000E+00  0.00000000E+00  0.00000000E+00
  0.00000000E+00  0.00000000E+00  0.00000000E+00
  0.00000000E+00  0.00000000E+00  0.00000000E+00
  0.00000000E+00  0.00000000E+00  0.00000000E+00
  0.00000000E+00  0.00000000E+00  0.00000000E+00
  0.00000000E+00  0.00000000E+00  0.00000000E+00
  0.00000000E+00  0.00000000E+00  0.00000000E+00
  0.00000000E+00  0.00000000E+00  0.00000000E+00
  0.00000000E+00  0.00000000E+00  0.00000000E+00
  0.00000000E+00  0.00000000E+00  0.00000000E+00
  0.00000000E+00  0.00000000E+00  0.00000000E+00
  0.00000000E+00  0.00000000E+00  0.00000000E+00
  0.00000000E+00  0.00000000E+00  0.00000000E+00
  0.00000000E+00  0.00000000E+00  0.00000000E+00
  0.00000000E+00  0.00000000E+00  0.00000000E+00
  0.00000000E+00  0.00000000E+00  0.00000000E+00
  0.00000000E+00  0.00000000E+00  0.00000000E+00
  0.00000000E+00  0.00000000E+00  0.00000000E+00
  0.00000000E+00  0.00000000E+00  0.00000000E+00
  0.00000000E+00  0.00000000E+00  0.00000000E+00
  0.00000000E+00  0.00000000E+00  0.00000000E+00
  0.00000000E+00  0.00000000E+00  0.00000000E+00
  0.00000000E+00  0.00000000E+00  0.00000000E+00
  0.00000000E+00  0.00000000E+00  0.00000000E+00
  0.00000000E+00  0.00000000E+00  0.00000000E+00
  0.00000000E+00  0.00000000E+00  0.00000000E+00
  0.00000000E+00  0.00000000E+00  0.00000000E+00
  0.00000000E+00  0.00000000E+00  0.00000000E+00
  0.00000000E+00  0.00000000E+00  0.00000000E+00
  0.00000000E+00  0.00000000E+00  0.00000000E+00
  0.00000000E+00  0.00000000E+00  0.00000000E+00
  0.00000000E+00  0.00000000E+00  0.00000000E+00
  0.00000000E+00  0.00000000E+00  0.00000000E+00
  0.00000000E+00  0.00000000E+00  0.00000000E+00
  0.00000000E+00  0.00000000E+00  0.00000000E+00
  0.00000000E+00  0.00000000E+00  0.00000000E+00
  0.00000000E+00  0.00000000E+00  0.00000000E+00
  0.00000000E+00  0.00000000E+00  0.00000000E+00
  0.00000000E+00  0.00000000E+00  0.00000000E+00
  0.00000000E+00  0.00000000E+00  0.00000000E+00
  0.00000000E+00  0.00000000E+00  0.00000000E+00
  0.00000000E+00  0.00000000E+00  0.00000000E+00
  0.00000000E+00  0.00000000E+00  0.00000000E+00
  0.00000000E+00  0.00000000E+00  0.00000000E+00
  0.00000000E+00  0.00000000E+00  0.00000000E+00
  0.00000000E+00  0.00000000E+00  0.00000000E+00
  0.00000000E+00  0.00000000E+00  0.00000000E+00
  0.00000000E+00  0.00000000E+00  0.00000000E+00
  0.00000000E+00  0.00000000E+00  0.00000000E+00
  0.00000000E+00  0.00000000E+00  0.00000000E+00
  0.00000000E+00  0.00000000E+00  0.00000000E+00
  0.00000000E+00  0.00000000E+00  0.00000000E+00
  0.00000000E+00  0.00000000E+00  0.00000000E+00
  0.00000000E+00  0.00000000E+00  0.00000000E+00
  0.00000000E+00  0.00000000E+00  0.00000000E+00
  0.00000000E+00  0.00000000E+00  0.00000000E+00
  0.00000000E+00  0.00000000E+00  0.00000000E+00
  0.00000000E+00  0.00000000E+00  0.00000000E+00
  0.00000000E+00  0.00000000E+00  0.00000000E+00
