Pt   H                                  
   1.00000000000000     
    11.2227001190000006    0.0000000000000000    0.0000000000000000
     5.6113500595000003    9.7191434021000003    0.0000000000000000
     0.0000000000000000    0.0000000000000000   22.0000000000000000
   Pt   H 
    80    17
Direct
  0.7861929061195450  0.8728539368704579  0.3354495810101782
  0.0365065061030642  0.8725676647687781  0.3356972079645625
  0.0358549069580957  0.6233116140550959  0.3359333004440869
  0.7841624166364864  0.8721499546833399  0.0307991278570597
  0.0341908819839274  0.8722794614766773  0.0312059698636678
  0.0339629192594688  0.6226985727918641  0.0312930781293423
  0.6181191205288854  0.2063057151888707  0.1344284395719856
  0.3684275831170034  0.9555792822850270  0.1345656052224712
  0.0349372218309263  0.3735965452178507  0.3363601415267044
  0.0348217341891129  0.3712806096919316  0.0317126712369848
  0.8675738811007332  0.2063990396088950  0.1343976559818012
  0.9518456048969831  0.5395277065373338  0.2346662356691069
  0.2860032458310555  0.1225055682520563  0.3360755195604907
  0.5366404173384689  0.6219730940467262  0.3369866182910276
  0.2860594526723292  0.3727959636507164  0.3360680328611741
  0.2834906957084123  0.1226599849334458  0.0316811035182249
  0.5341510191851691  0.6222111010699229  0.0312806988030552
  0.2842333266449764  0.3722483540982813  0.0312936161389922
  0.6180679809627760  0.9560452925899431  0.1342564104492736
  0.7019395560568890  0.7895668108307270  0.2343395080211912
  0.8680744304124326  0.7061271300012403  0.1343534162612277
  0.6181942281276211  0.4559883289380401  0.1347956414855181
  0.2863668396278533  0.8728084264933307  0.3357098076761824
  0.2842164059049353  0.8726946123445997  0.0311508923700660
  0.6183998473764474  0.7055346415554226  0.1344622360751539
  0.2027347666814904  0.0385204297271744  0.2346467474395757
  0.8708284991962119  0.9556141901340203  0.4410153744556231
  0.1199194899147595  0.4568286520373201  0.4414892747359206
  0.1218631921825518  0.9545205741446581  0.4413107085055207
  0.8680146706227543  0.4563572043230147  0.4428808015310267
  0.3705173066520824  0.9541402263449070  0.4416173778292357
  0.8704646563683573  0.2060632750037008  0.4419695219437355
  0.1200022678928947  0.2060943558902495  0.4414013899749902
  0.6199603555063572  0.9555884658164271  0.4411229773815597
  0.8700090147544202  0.7057668215589118  0.4413974742627125
  0.3704158970929687  0.2060820972946291  0.4413568391290907
  0.3735880112608944  0.6995393362451970  0.4417317249989873
  0.6167357894504107  0.4562264790815816  0.4453809587800682
  0.1222940260108264  0.7049449473625291  0.4424374420609682
  0.6200981167276588  0.2065810839185709  0.4413473551648085
  0.5359651584145055  0.3735970726800674  0.3368499988468018
  0.5340400850145006  0.3725073691974476  0.0312567229284792
  0.5363339172839803  0.1225882910247529  0.3358332862718824
  0.5343357446463075  0.1222889480081783  0.0312906320465784
  0.8677495333018386  0.4562254523160557  0.1346103752110168
  0.1182399923016668  0.4559792594977851  0.1345049303533626
  0.0360050592876046  0.1228709870081354  0.3361697740394929
  0.0348399525741297  0.1227953389354832  0.0315398051521784
  0.1183684596379929  0.9556828497794606  0.1343289599734916
  0.3719939483615702  0.4572715985520178  0.4430876929574077
  0.4521789304574585  0.5392604539316892  0.2351115805297895
  0.6192144953048382  0.7037448493498905  0.4437390879868852
  0.3681233437828547  0.2061050904263434  0.1345429336851632
  0.1181194433883935  0.2058031727934071  0.1355185024158780
  0.9520757976241536  0.7896708482228805  0.2341645230093836
  0.7853860414559738  0.6228862696503692  0.3365071793773421
  0.2864538090401713  0.6226256687924319  0.3364507407934794
  0.7841360140281783  0.6225897626058821  0.0312718164232998
  0.2847209852643999  0.6220163539054256  0.0312933041144815
  0.3683917396802823  0.7056971126537802  0.1344693685964815
  0.3682499661612325  0.4560268942113256  0.1346632262125762
  0.2021674475527958  0.2900671763378381  0.2350287265271525
  0.7860056846288472  0.3727890080989871  0.3364644524120527
  0.7842900056444688  0.3723689417048369  0.0311644482023435
  0.9521710757007478  0.0395186607005138  0.2343240906830433
  0.4526504191128536  0.7887494345120016  0.2346512080811332
  0.7017645722014560  0.5399307346274861  0.2350554642150967
  0.2023819517825064  0.7888321241438765  0.2344382585304133
  0.4521289103741817  0.0391949432627660  0.2346241966024471
  0.1183439350998780  0.7058036915947027  0.1343269268945131
  0.7022420176040386  0.0394765051137300  0.2341142105686545
  0.7862123970128828  0.1228979524773657  0.3357986721612060
  0.5367214230266564  0.8715801052663529  0.3361774262672535
  0.7838616040059477  0.1224936684281286  0.0311525340821499
  0.5341861553967768  0.8724974297997343  0.0313238881022283
  0.2020838488696890  0.5399085780241959  0.2346804128626597
  0.9512105145856732  0.2898719265202711  0.2349052565924973
  0.8680870863398216  0.9560958410258920  0.1341410069848875
  0.7013338135680596  0.2897264854709504  0.2349252700418430
  0.4521547450348270  0.2897475301478482  0.2347164310843044
  0.4594233224936465  0.4435577012561899  0.5454712078447106
  0.5312872422568440  0.4315431937287856  0.5473377313983375
  0.7013627587944796  0.5419559370066986  0.4856384214755669
  0.2071413626967678  0.7882884515732357  0.4825752059041246
  0.4516026049448576  0.7879300103869435  0.4831318707561895
  0.7032896160462889  0.7899588527552734  0.4822709751927923
  0.9533759830148463  0.7899604893192741  0.4816489447602758
  0.1982653535195008  0.5416190375122725  0.4830997991963900
  0.9524988950591220  0.5401539129299863  0.4821722726106493
  0.2034012852570417  0.2901527040394137  0.4821095764268241
  0.4552426308277078  0.2809546552960043  0.4821167426111019
  0.7151150851739491  0.2789583518587385  0.4846434545478056
  0.9546277475163796  0.2896474930911722  0.4827249781249219
  0.2036594548594172  0.0398170753913511  0.4819907686642649
  0.4539758824184074  0.0385041872394575  0.4817948135340598
  0.7040216132132074  0.0383264139379522  0.4811714919128761
  0.9549588804902991  0.0379516471884795  0.4817998494950806
 
             NaN             NaN             NaN
             NaN             NaN             NaN
             NaN             NaN             NaN
             NaN             NaN             NaN
             NaN             NaN             NaN
             NaN             NaN             NaN
             NaN             NaN             NaN
             NaN             NaN             NaN
             NaN             NaN             NaN
             NaN             NaN             NaN
             NaN             NaN             NaN
             NaN             NaN             NaN
             NaN             NaN             NaN
             NaN             NaN             NaN
             NaN             NaN             NaN
             NaN             NaN             NaN
             NaN             NaN             NaN
             NaN             NaN             NaN
             NaN             NaN             NaN
             NaN             NaN             NaN
             NaN             NaN             NaN
             NaN             NaN             NaN
             NaN             NaN             NaN
             NaN             NaN             NaN
             NaN             NaN             NaN
             NaN             NaN             NaN
             NaN             NaN             NaN
             NaN             NaN             NaN
             NaN             NaN             NaN
             NaN             NaN             NaN
             NaN             NaN             NaN
             NaN             NaN             NaN
             NaN             NaN             NaN
             NaN             NaN             NaN
             NaN             NaN             NaN
             NaN             NaN             NaN
             NaN             NaN             NaN
             NaN             NaN             NaN
             NaN             NaN             NaN
             NaN             NaN             NaN
             NaN             NaN             NaN
             NaN             NaN             NaN
             NaN             NaN             NaN
             NaN             NaN             NaN
             NaN             NaN             NaN
             NaN             NaN             NaN
             NaN             NaN             NaN
             NaN             NaN             NaN
             NaN             NaN             NaN
             NaN             NaN             NaN
             NaN             NaN             NaN
             NaN             NaN             NaN
             NaN             NaN             NaN
             NaN             NaN             NaN
             NaN             NaN             NaN
             NaN             NaN             NaN
             NaN             NaN             NaN
             NaN             NaN             NaN
             NaN             NaN             NaN
             NaN             NaN             NaN
             NaN             NaN             NaN
             NaN             NaN             NaN
             NaN             NaN             NaN
             NaN             NaN             NaN
             NaN             NaN             NaN
             NaN             NaN             NaN
             NaN             NaN             NaN
             NaN             NaN             NaN
             NaN             NaN             NaN
             NaN             NaN             NaN
             NaN             NaN             NaN
             NaN             NaN             NaN
             NaN             NaN             NaN
             NaN             NaN             NaN
             NaN             NaN             NaN
             NaN             NaN             NaN
             NaN             NaN             NaN
             NaN             NaN             NaN
             NaN             NaN             NaN
             NaN             NaN             NaN
             NaN             NaN             NaN
             NaN             NaN             NaN
             NaN             NaN             NaN
             NaN             NaN             NaN
             NaN             NaN             NaN
             NaN             NaN             NaN
             NaN             NaN             NaN
             NaN             NaN             NaN
             NaN             NaN             NaN
             NaN             NaN             NaN
             NaN             NaN             NaN
             NaN             NaN             NaN
             NaN             NaN             NaN
             NaN             NaN             NaN
             NaN             NaN             NaN
             NaN             NaN             NaN
             NaN             NaN             NaN
