11.26                                   
   1.00000000000000     
    11.2227001190000006    0.0000000000000000    0.0000000000000000
     5.6113500595000003    9.7191434021000003    0.0000000000000000
     0.0000000000000000    0.0000000000000000   22.0000000000000000
   Pt   Co   Ni   H 
    32    23    25     1
Selective dynamics
Direct
  0.7889487521179461  0.8789449601653416  0.3012763696499974   F   F   F
  0.0317767792948160  0.8804055020168917  0.2920075738772709   F   F   F
  0.2764146560413181  0.3610297409483465  0.3110873928727287   F   F   F
  0.8770875617116189  0.9640369428827995  0.3993967935318210   F   F   F
  0.1127350479127145  0.4690680771944358  0.4098899587272697   F   F   F
  0.1264099725543986  0.9529507114278033  0.3989701316590910   F   F   F
  0.8732790015532856  0.4546523350345097  0.4123018118772706   F   F   F
  0.3802969143478450  0.9553181079511432  0.4170888612227301   F   F   F
  0.8657627792996223  0.2115737746245898  0.3970647908136371   F   F   F
  0.1295309537112601  0.2163875227878194  0.4127102910181790   F   F   F
  0.6295204115431332  0.9523035581098824  0.4099024694500031   F   F   F
  0.8755847218128565  0.7157241507000478  0.4082527781500005   F   F   F
  0.3797287261352409  0.1997998015319382  0.4137313513500018   F   F   F
  0.3756307980094320  0.6944150698961522  0.4016461970090930   F   F   F
  0.6206305926138072  0.4570161767178220  0.3990205307136350   F   F   F
  0.1161544723416270  0.7106142060017078  0.4005544835636385   F   F   F
  0.6287009600887004  0.2006058250440788  0.4041348156545439   F   F   F
  0.5388540969880751  0.3472453599841714  0.3007554262181813   F   F   F
  0.5276383449238367  0.1132660352312698  0.3084029721499988   F   F   F
  0.5456924111831540  0.1264773896570333  0.0668330444500000   F   F   F
  0.1179165896219203  0.4079249947421673  0.1190886190954572   F   F   F
  0.0546380730874887  0.1472568830490530  0.3106286741909088   F   F   F
  0.0089289541086117  0.1017685166149818  0.0491765075181831   F   F   F
  0.1378320738526071  0.9269114493519552  0.1419736841636379   F   F   F
  0.3765729291230500  0.4487550203814905  0.4059262715500012   F   F   F
  0.4797971570719426  0.5539988047029567  0.2297174711863619   F   F   F
  0.6304798835835967  0.7062220908086374  0.4135536738272734   F   F   F
  0.9525234537930558  0.7589897745830285  0.2042040527636360   F   F   F
  0.7969843762367006  0.6309461926320594  0.3105483083090874   F   F   F
  0.2741865971641104  0.6069190659050747  0.3024778048318169   F   F   F
  0.1874902960314415  0.2619820637330932  0.2253988999272707   F   F   F
  0.7108920581928047  0.5610073442297292  0.2141021541772758   F   F   F
  0.0420679244185678  0.6081556920770268  0.3045998537090924   F   F   F
  0.7819683701955427  0.8836707209448420  0.0801259714954554   F   F   F
  0.0016786040756998  0.8657086972172863  0.0717220294954544   F   F   F
  0.0064947452574984  0.6568619922019678  0.0936782229045434   F   F   F
  0.6278902107001798  0.2337904024246669  0.1497297419681800   F   F   F
  0.3605011249257544  0.9423524271924038  0.1347041508181803   F   F   F
  0.0235568673407727  0.3955336505755653  0.3161597714909092   F   F   F
  0.0129609727070417  0.3213949785765138  0.0444243323545450   F   F   F
  0.8442397035971254  0.2276131851930501  0.1389197702363631   F   F   F
  0.9674460336454942  0.5204864880486255  0.2188500749409101   F   F   F
  0.3031986917869318  0.0988332969644716  0.3193418949909059   F   F   F
  0.5527454634084421  0.6481662430187853  0.3174427423545438   F   F   F
  0.2508545359252849  0.0912810139428828  0.0487872830227261   F   F   F
  0.5291378415644843  0.6116220387812774  0.0469794814590898   F   F   F
  0.3338924189020531  0.3612659424843301  0.0722196333181842   F   F   F
  0.5814733168765329  0.9365131401840756  0.1369430198363659   F   F   F
  0.6773266661753325  0.8092123915571250  0.2230530417863648   F   F   F
  0.8097944659668883  0.6790648121082299  0.1402434814090938   F   F   F
  0.6293781667954050  0.4536695041506746  0.1332572430909096   F   F   F
  0.3217880914875977  0.8720283739890817  0.3171000990772725   F   F   F
  0.2991981285917618  0.8498356801809663  0.0500064375045426   F   F   F
  0.5810344788006034  0.7261254454662236  0.1239217899045428   F   F   F
  0.2290723421035281  0.0129455240441061  0.2296757311181850   F   F   F
  0.5487186473537591  0.3606903691062442  0.0554524207318181   F   F   F
  0.3441165493717691  0.1669096226370641  0.1316441221863656   F   F   F
  0.1755439985883172  0.6842061655827791  0.1476189425363614   F   F   F
  0.6608263512248982  0.0424903716114287  0.2130448247909058   F   F   F
  0.7846320617145253  0.1168790551597922  0.2966357161090940   F   F   F
  0.5372333564189162  0.8744178563373950  0.3159064814772705   F   F   F
  0.7728439665680398  0.1227826303336741  0.0604845839136345   F   F   F
  0.5003074210799383  0.8984495284649512  0.0445551465727263   F   F   F
  0.1957150797376812  0.5052286738087446  0.2143863590590911   F   F   F
  0.9354617673556689  0.3154204577882496  0.2255271175500013   F   F   F
  0.8582446837676017  0.0019510069473725  0.1561197289090899   F   F   F
  0.7210428981411425  0.3149762791995201  0.2296972617681803   F   F   F
  0.4300228872279135  0.2657770050025050  0.2137706572090892   F   F   F
  0.8770375531629568  0.4295574328801379  0.1287836487363663   F   F   F
  0.0963481931919432  0.1806982179952712  0.1396927366863636   F   F   F
  0.7598886996324694  0.5886779948286147  0.0515561146681804   F   F   F
  0.3152737423209686  0.5915166876494311  0.0592523364318183   F   F   F
  0.3817921641394761  0.7012659040432894  0.1364658375045451   F   F   F
  0.4004265753919469  0.4537703161625402  0.1488472664727283   F   F   F
  0.7915941580418675  0.4005573362935309  0.3136574599636361   F   F   F
  0.7808992644723389  0.3514802091058655  0.0459807957863632   F   F   F
  0.9695440421590007  0.0843031522842779  0.2219682032818184   F   F   F
  0.4648689818808052  0.7946388815429231  0.2253314380545461   F   F   F
  0.2489049567848340  0.7859896227119592  0.2326762259318187   F   F   F
  0.4386220550658777  0.0277131730808478  0.2245019522090885   F   F   F
  0.2887492106453564  0.8644907671579958  0.4410037976636397   T   T   T
 
  0.00000000E+00  0.00000000E+00  0.00000000E+00
  0.00000000E+00  0.00000000E+00  0.00000000E+00
  0.00000000E+00  0.00000000E+00  0.00000000E+00
  0.00000000E+00  0.00000000E+00  0.00000000E+00
  0.00000000E+00  0.00000000E+00  0.00000000E+00
  0.00000000E+00  0.00000000E+00  0.00000000E+00
  0.00000000E+00  0.00000000E+00  0.00000000E+00
  0.00000000E+00  0.00000000E+00  0.00000000E+00
  0.00000000E+00  0.00000000E+00  0.00000000E+00
  0.00000000E+00  0.00000000E+00  0.00000000E+00
  0.00000000E+00  0.00000000E+00  0.00000000E+00
  0.00000000E+00  0.00000000E+00  0.00000000E+00
  0.00000000E+00  0.00000000E+00  0.00000000E+00
  0.00000000E+00  0.00000000E+00  0.00000000E+00
  0.00000000E+00  0.00000000E+00  0.00000000E+00
  0.00000000E+00  0.00000000E+00  0.00000000E+00
  0.00000000E+00  0.00000000E+00  0.00000000E+00
  0.00000000E+00  0.00000000E+00  0.00000000E+00
  0.00000000E+00  0.00000000E+00  0.00000000E+00
  0.00000000E+00  0.00000000E+00  0.00000000E+00
  0.00000000E+00  0.00000000E+00  0.00000000E+00
  0.00000000E+00  0.00000000E+00  0.00000000E+00
  0.00000000E+00  0.00000000E+00  0.00000000E+00
  0.00000000E+00  0.00000000E+00  0.00000000E+00
  0.00000000E+00  0.00000000E+00  0.00000000E+00
  0.00000000E+00  0.00000000E+00  0.00000000E+00
  0.00000000E+00  0.00000000E+00  0.00000000E+00
  0.00000000E+00  0.00000000E+00  0.00000000E+00
  0.00000000E+00  0.00000000E+00  0.00000000E+00
  0.00000000E+00  0.00000000E+00  0.00000000E+00
  0.00000000E+00  0.00000000E+00  0.00000000E+00
  0.00000000E+00  0.00000000E+00  0.00000000E+00
  0.00000000E+00  0.00000000E+00  0.00000000E+00
  0.00000000E+00  0.00000000E+00  0.00000000E+00
  0.00000000E+00  0.00000000E+00  0.00000000E+00
  0.00000000E+00  0.00000000E+00  0.00000000E+00
  0.00000000E+00  0.00000000E+00  0.00000000E+00
  0.00000000E+00  0.00000000E+00  0.00000000E+00
  0.00000000E+00  0.00000000E+00  0.00000000E+00
  0.00000000E+00  0.00000000E+00  0.00000000E+00
  0.00000000E+00  0.00000000E+00  0.00000000E+00
  0.00000000E+00  0.00000000E+00  0.00000000E+00
  0.00000000E+00  0.00000000E+00  0.00000000E+00
  0.00000000E+00  0.00000000E+00  0.00000000E+00
  0.00000000E+00  0.00000000E+00  0.00000000E+00
  0.00000000E+00  0.00000000E+00  0.00000000E+00
  0.00000000E+00  0.00000000E+00  0.00000000E+00
  0.00000000E+00  0.00000000E+00  0.00000000E+00
  0.00000000E+00  0.00000000E+00  0.00000000E+00
  0.00000000E+00  0.00000000E+00  0.00000000E+00
  0.00000000E+00  0.00000000E+00  0.00000000E+00
  0.00000000E+00  0.00000000E+00  0.00000000E+00
  0.00000000E+00  0.00000000E+00  0.00000000E+00
  0.00000000E+00  0.00000000E+00  0.00000000E+00
  0.00000000E+00  0.00000000E+00  0.00000000E+00
  0.00000000E+00  0.00000000E+00  0.00000000E+00
  0.00000000E+00  0.00000000E+00  0.00000000E+00
  0.00000000E+00  0.00000000E+00  0.00000000E+00
  0.00000000E+00  0.00000000E+00  0.00000000E+00
  0.00000000E+00  0.00000000E+00  0.00000000E+00
  0.00000000E+00  0.00000000E+00  0.00000000E+00
  0.00000000E+00  0.00000000E+00  0.00000000E+00
  0.00000000E+00  0.00000000E+00  0.00000000E+00
  0.00000000E+00  0.00000000E+00  0.00000000E+00
  0.00000000E+00  0.00000000E+00  0.00000000E+00
  0.00000000E+00  0.00000000E+00  0.00000000E+00
  0.00000000E+00  0.00000000E+00  0.00000000E+00
  0.00000000E+00  0.00000000E+00  0.00000000E+00
  0.00000000E+00  0.00000000E+00  0.00000000E+00
  0.00000000E+00  0.00000000E+00  0.00000000E+00
  0.00000000E+00  0.00000000E+00  0.00000000E+00
  0.00000000E+00  0.00000000E+00  0.00000000E+00
  0.00000000E+00  0.00000000E+00  0.00000000E+00
  0.00000000E+00  0.00000000E+00  0.00000000E+00
  0.00000000E+00  0.00000000E+00  0.00000000E+00
  0.00000000E+00  0.00000000E+00  0.00000000E+00
  0.00000000E+00  0.00000000E+00  0.00000000E+00
  0.00000000E+00  0.00000000E+00  0.00000000E+00
  0.00000000E+00  0.00000000E+00  0.00000000E+00
  0.00000000E+00  0.00000000E+00  0.00000000E+00
  0.00000000E+00  0.00000000E+00  0.00000000E+00
