11.26-high                              
   1.00000000000000     
    11.2227001190000006    0.0000000000000000    0.0000000000000000
     5.6113500595000003    9.7191434021000003    0.0000000000000000
     0.0000000000000000    0.0000000000000000   22.0000000000000000
   Pt   Fe   Co   Cu   Ni
    42    10     9    10     9
Direct
  0.7755103943316758  0.8702934290847263  0.3148976284445403
  0.0355284760924791  0.8695873251972602  0.3152146246291190
  0.0361167381681181  0.6159599687330074  0.3127570005297016
  0.0278405091293147  0.3711231576162250  0.3186986567363720
  0.2897523011177252  0.1061676751703661  0.3185369922056955
  0.2869811008382739  0.3672232964986866  0.3174006603940484
  0.8603830678076652  0.6885467750520675  0.1253156462493268
  0.8680670765148960  0.9521650999740029  0.4165951558525000
  0.1145803713252558  0.4561376562816596  0.4195076504264203
  0.1244081838695869  0.9479463885708672  0.4169692250222319
  0.8691541396577608  0.4491036145062600  0.4208755727001551
  0.3720359491476902  0.9458331949591120  0.4185185899989837
  0.8665808953783064  0.2041126183386654  0.4156984215882054
  0.1188951425414415  0.2012463603780953  0.4201614189805639
  0.6185041307566932  0.9469487100602177  0.4179354481113099
  0.8673691870552845  0.7040285946553556  0.4196488728194789
  0.3718665594897342  0.1964130030669956  0.4198099954828825
  0.3732724026624300  0.7034610891627118  0.4180245163466100
  0.6216374509772716  0.4565219028967017  0.4194900449751314
  0.1170617511037880  0.7010301817214162  0.4185773496324467
  0.6187120428401724  0.2049620587191594  0.4170588604628266
  0.5410471666839287  0.3759524180012588  0.3177521598799049
  0.5314589502813307  0.1213242827102210  0.3165382112596382
  0.5442019006234872  0.1201914845025817  0.0504434484679236
  0.1142405163188474  0.4386075722999919  0.1234050769610375
  0.0390975440301536  0.1140016483447884  0.3158439445583019
  0.0243253264430940  0.1323668837176646  0.0369015360275967
  0.1152134814912849  0.9584880216472288  0.1297927210408207
  0.3665641093267751  0.4532374992370208  0.4195854047457846
  0.4557435896223500  0.5396524899344787  0.2213525035883186
  0.6175737162907140  0.7010585444552879  0.4206168137881490
  0.9410139446932404  0.7905655189912083  0.2179142421046168
  0.7795575062599392  0.6227118717841200  0.3181648842073140
  0.2892798314101129  0.6205373051349267  0.3178518284053584
  0.3768126017663858  0.7090882968409898  0.1223311202294521
  0.1980441227969376  0.2771285427156569  0.2229871410606494
  0.6939540916268462  0.5484393539214282  0.2221168207390591
  0.2107683324929859  0.7918799648340160  0.2236131327329725
  0.4557418254883885  0.0164923155881170  0.2206410286900911
  0.6862860921395312  0.0468873908925979  0.2147227927180402
  0.7840327336682469  0.1213555246815389  0.3132373566804311
  0.9434930917057770  0.2857924509305771  0.2215890749884237
  0.7867857272305299  0.8821680795139343  0.0488070628567185
  0.0358623303018862  0.8507121037495878  0.0465431883611260
  0.0481229290148855  0.6302962965885239  0.0439644148243089
  0.6209494190256256  0.2256219229560411  0.1323573148461960
  0.3709421952687437  0.9443970530279264  0.1313032974216606
  0.9936099268667031  0.3719789771386983  0.0447934889858909
  0.8631642533405988  0.2122395306844207  0.1308509258426832
  0.9463297029531915  0.5321554723788556  0.2240115982667722
  0.5361476681256547  0.6194472988678619  0.3230336553771940
  0.2942496729212958  0.1094640347671789  0.0502411027812236
  0.5652370767823092  0.5964757606251895  0.0467385234616211
  0.3035354273712814  0.3837712234920896  0.0499963786528914
  0.6277578011991263  0.9236075517216411  0.1303932065744409
  0.6989168430166208  0.7800059105682146  0.2225661840061336
  0.6222664635179114  0.4485233850114686  0.1314846070345991
  0.2889880775550985  0.8664972770005862  0.3197706109645476
  0.2792035565312903  0.9034454831199301  0.0410961363186883
  0.6143503406282811  0.7101301790460989  0.1300746441971690
  0.2165096431627836  0.0224182010106603  0.2257764199422667
  0.5361482883470036  0.3764256073067899  0.0401335441092101
  0.3702343115360550  0.2105192803856276  0.1365703186991105
  0.1326484000417068  0.6896726429103112  0.1374850507489010
  0.5351430764765771  0.8579392659506629  0.3187128508473900
  0.7841087454822760  0.1257091519005566  0.0403582594790161
  0.5329206264304264  0.8661142146459981  0.0408235199174641
  0.2106888119809533  0.5229193255236990  0.2214641484118892
  0.8693192534749313  0.9736660002535681  0.1323443272517514
  0.7050605033615587  0.2914274399018957  0.2245332657360604
  0.4533111685021001  0.2946908516176102  0.2235118708210926
  0.8556987306819210  0.4497894098645303  0.1313302277676820
  0.1273694145311338  0.1919494531597704  0.1306615633941920
  0.7725967245717101  0.5982079950571491  0.0420667780718930
  0.2752698282733763  0.6127388501468383  0.0463555859121306
  0.3852170713917356  0.4500455704936779  0.1318572647088228
  0.7770920078085458  0.3799975387060054  0.3199332617641114
  0.7757829137471844  0.3655372166694726  0.0436342522749184
  0.9538253258211941  0.0428579507673681  0.2228099709189454
  0.4551161067599010  0.7837870906602586  0.2271676499868645
 
  0.00000000E+00  0.00000000E+00  0.00000000E+00
  0.00000000E+00  0.00000000E+00  0.00000000E+00
  0.00000000E+00  0.00000000E+00  0.00000000E+00
  0.00000000E+00  0.00000000E+00  0.00000000E+00
  0.00000000E+00  0.00000000E+00  0.00000000E+00
  0.00000000E+00  0.00000000E+00  0.00000000E+00
  0.00000000E+00  0.00000000E+00  0.00000000E+00
  0.00000000E+00  0.00000000E+00  0.00000000E+00
  0.00000000E+00  0.00000000E+00  0.00000000E+00
  0.00000000E+00  0.00000000E+00  0.00000000E+00
  0.00000000E+00  0.00000000E+00  0.00000000E+00
  0.00000000E+00  0.00000000E+00  0.00000000E+00
  0.00000000E+00  0.00000000E+00  0.00000000E+00
  0.00000000E+00  0.00000000E+00  0.00000000E+00
  0.00000000E+00  0.00000000E+00  0.00000000E+00
  0.00000000E+00  0.00000000E+00  0.00000000E+00
  0.00000000E+00  0.00000000E+00  0.00000000E+00
  0.00000000E+00  0.00000000E+00  0.00000000E+00
  0.00000000E+00  0.00000000E+00  0.00000000E+00
  0.00000000E+00  0.00000000E+00  0.00000000E+00
  0.00000000E+00  0.00000000E+00  0.00000000E+00
  0.00000000E+00  0.00000000E+00  0.00000000E+00
  0.00000000E+00  0.00000000E+00  0.00000000E+00
  0.00000000E+00  0.00000000E+00  0.00000000E+00
  0.00000000E+00  0.00000000E+00  0.00000000E+00
  0.00000000E+00  0.00000000E+00  0.00000000E+00
  0.00000000E+00  0.00000000E+00  0.00000000E+00
  0.00000000E+00  0.00000000E+00  0.00000000E+00
  0.00000000E+00  0.00000000E+00  0.00000000E+00
  0.00000000E+00  0.00000000E+00  0.00000000E+00
  0.00000000E+00  0.00000000E+00  0.00000000E+00
  0.00000000E+00  0.00000000E+00  0.00000000E+00
  0.00000000E+00  0.00000000E+00  0.00000000E+00
  0.00000000E+00  0.00000000E+00  0.00000000E+00
  0.00000000E+00  0.00000000E+00  0.00000000E+00
  0.00000000E+00  0.00000000E+00  0.00000000E+00
  0.00000000E+00  0.00000000E+00  0.00000000E+00
  0.00000000E+00  0.00000000E+00  0.00000000E+00
  0.00000000E+00  0.00000000E+00  0.00000000E+00
  0.00000000E+00  0.00000000E+00  0.00000000E+00
  0.00000000E+00  0.00000000E+00  0.00000000E+00
  0.00000000E+00  0.00000000E+00  0.00000000E+00
  0.00000000E+00  0.00000000E+00  0.00000000E+00
  0.00000000E+00  0.00000000E+00  0.00000000E+00
  0.00000000E+00  0.00000000E+00  0.00000000E+00
  0.00000000E+00  0.00000000E+00  0.00000000E+00
  0.00000000E+00  0.00000000E+00  0.00000000E+00
  0.00000000E+00  0.00000000E+00  0.00000000E+00
  0.00000000E+00  0.00000000E+00  0.00000000E+00
  0.00000000E+00  0.00000000E+00  0.00000000E+00
  0.00000000E+00  0.00000000E+00  0.00000000E+00
  0.00000000E+00  0.00000000E+00  0.00000000E+00
  0.00000000E+00  0.00000000E+00  0.00000000E+00
  0.00000000E+00  0.00000000E+00  0.00000000E+00
  0.00000000E+00  0.00000000E+00  0.00000000E+00
  0.00000000E+00  0.00000000E+00  0.00000000E+00
  0.00000000E+00  0.00000000E+00  0.00000000E+00
  0.00000000E+00  0.00000000E+00  0.00000000E+00
  0.00000000E+00  0.00000000E+00  0.00000000E+00
  0.00000000E+00  0.00000000E+00  0.00000000E+00
  0.00000000E+00  0.00000000E+00  0.00000000E+00
  0.00000000E+00  0.00000000E+00  0.00000000E+00
  0.00000000E+00  0.00000000E+00  0.00000000E+00
  0.00000000E+00  0.00000000E+00  0.00000000E+00
  0.00000000E+00  0.00000000E+00  0.00000000E+00
  0.00000000E+00  0.00000000E+00  0.00000000E+00
  0.00000000E+00  0.00000000E+00  0.00000000E+00
  0.00000000E+00  0.00000000E+00  0.00000000E+00
  0.00000000E+00  0.00000000E+00  0.00000000E+00
  0.00000000E+00  0.00000000E+00  0.00000000E+00
  0.00000000E+00  0.00000000E+00  0.00000000E+00
  0.00000000E+00  0.00000000E+00  0.00000000E+00
  0.00000000E+00  0.00000000E+00  0.00000000E+00
  0.00000000E+00  0.00000000E+00  0.00000000E+00
  0.00000000E+00  0.00000000E+00  0.00000000E+00
  0.00000000E+00  0.00000000E+00  0.00000000E+00
  0.00000000E+00  0.00000000E+00  0.00000000E+00
  0.00000000E+00  0.00000000E+00  0.00000000E+00
  0.00000000E+00  0.00000000E+00  0.00000000E+00
  0.00000000E+00  0.00000000E+00  0.00000000E+00
