Pt111                                   
   1.00000000000000     
    11.2227001190000006    0.0000000000000000    0.0000000000000000
     5.6113500595000003    9.7191434021000003    0.0000000000000000
     0.0000000000000000    0.0000000000000000   22.0000000000000000
   Pt   H 
    80    16
Direct
  0.7852137749010120  0.8689576198118715  0.3267459177437457
  0.0349864405493978  0.8689807288309060  0.3267164702600314
  0.0351485866692637  0.6187262313107018  0.3266661651609450
  0.7857768070520089  0.8687521739568942  0.0214839130203632
  0.0352856067729241  0.8686184057825745  0.0215066877107774
  0.0353811095901040  0.6191507983123915  0.0215952220349058
  0.6187261722851247  0.2018829919643259  0.1247445728734370
  0.3686036140462439  0.9524208536532346  0.1247133211391492
  0.0358855624521081  0.3684863783233876  0.3264509334584720
  0.0359039508005153  0.3681573603758695  0.0216177562151617
  0.8689770816188267  0.2018795817927623  0.1247186261246130
  0.9520140659353734  0.5353914009297311  0.2249175539663264
  0.2851124335674795  0.1190194003314222  0.3270914568926345
  0.5349229293438973  0.6194991200884303  0.3247605943458007
  0.2847101441144811  0.3684576046200750  0.3264149267232407
  0.2851646937073143  0.1192645990125501  0.0219905968633872
  0.5355328318449565  0.6187473595585307  0.0211962178394985
  0.2856735338794817  0.3680886330372478  0.0216349832494644
  0.6186824477071888  0.9522519825956047  0.1248165891215260
  0.7020999125875759  0.7854213969574063  0.2248526680330772
  0.8687731096888750  0.7022058883206822  0.1247856155061135
  0.6189877617584667  0.4517125162730710  0.1243258474217672
  0.2844582971688921  0.8700090054722150  0.3260794415896731
  0.2852571296866677  0.8688302556944089  0.0214322215313748
  0.6185981733102253  0.7024042004152803  0.1245011024598159
  0.2021624391430505  0.0351464388740443  0.2253023267706042
  0.8681499654758521  0.9526092483655665  0.4327719002940306
  0.1181664805157504  0.4526677595542647  0.4326992680352785
  0.1188103134927453  0.9518632619236040  0.4327129189606874
  0.8633066365732400  0.4545605755519450  0.4307548105854525
  0.3688510540442957  0.9512163958939566  0.4325472241567406
  0.8664059698736584  0.2050696832989854  0.4329327724437368
  0.1174697436137560  0.2029691370955876  0.4329913653467128
  0.6182995961719366  0.9518419861323280  0.4327092681925491
  0.8672502711099522  0.7011441624468225  0.4327570030126395
  0.3684815783277978  0.2030598670265456  0.4329327975230994
  0.3724750641090285  0.6970951333416523  0.4300341591496293
  0.6163754039604855  0.4563257220687955  0.4284194134182942
  0.1204058622046017  0.7011887390142671  0.4326718060253693
  0.6174659171448799  0.2050743203197967  0.4328957610354823
  0.5349378539793731  0.3681953290788092  0.3254622714184088
  0.5355414629069216  0.3685094851647090  0.0213060522662029
  0.5352367423627721  0.1187466066623859  0.3269149060628689
  0.5351716388428945  0.1186912593065236  0.0217851313126606
  0.8693122909135681  0.4517338062330977  0.1245419130289587
  0.1188169448226319  0.4519586841460776  0.1247331946913224
  0.0352102685681822  0.1187872311519643  0.3269327059895876
  0.0358483728295527  0.1188278456413290  0.0217587628214950
  0.1187000017573636  0.9522607822036111  0.1247836096269644
  0.3710204353777846  0.4546691327143649  0.4306144382651583
  0.4518692556897544  0.5354810098078312  0.2242866732806570
  0.6194408493756649  0.6969040234597486  0.4304450275522444
  0.3687175129762031  0.2020235079926743  0.1253187373124188
  0.1187999108416246  0.2020905762333763  0.1253140474688224
  0.9519408253573383  0.7854037301284479  0.2250999870317082
  0.7855065885116618  0.6190915495831756  0.3258662614359502
  0.2845091025620639  0.6191091691212330  0.3258278983611603
  0.7855298103031370  0.6190556942327502  0.0215055703819148
  0.2853868920080581  0.6190207894448289  0.0215077676173854
  0.3685857841326087  0.7024157555041720  0.1244802956746812
  0.3685304139894961  0.4517053633192269  0.1245299512664716
  0.2018106231317214  0.2858113050891483  0.2254261448293826
  0.7861315260135857  0.3681280491353815  0.3254437917531371
  0.7855665801485692  0.3686214860408313  0.0212634364349054
  0.9520214475502992  0.0354946936834523  0.2251665868041825
  0.4519581940078067  0.7855309004967674  0.2245863715366460
  0.7020192805816945  0.5354834215902063  0.2242878777078375
  0.2018207782621085  0.7854668004478984  0.2248295773808918
  0.4521104470323711  0.0351732587350916  0.2252941250744744
  0.1186234331237871  0.7021852208259252  0.1247712262942438
  0.7019469739180271  0.0354788463953140  0.2251833797307112
  0.7852689087017448  0.1186928908265103  0.3267419295306459
  0.5348277604622967  0.8698718816693880  0.3261410225569379
  0.7858017771461524  0.1180928875018374  0.0217246956549342
  0.5356837475634264  0.8687671657992287  0.0214834371711251
  0.2019202410147152  0.5354594043170879  0.2249385617422845
  0.9514429599502005  0.2855185768628785  0.2251293206819565
  0.8688370167071282  0.9519772170010824  0.1248848405590183
  0.7022035409889509  0.2850538603517961  0.2247321067079594
  0.4524179549183218  0.2854857028113363  0.2251416297932794
  0.4732711740175157  0.5566385702273122  0.5649369090945794
  0.5150610682469403  0.5917940904278914  0.5681051947992285
  0.2060662689597836  0.7828299564901391  0.4720600199667326
  0.4542806797460017  0.7817057659165260  0.4714915865658272
  0.6997828400521838  0.7824183118849024  0.4722892197988837
  0.9521004032020526  0.7846954929190020  0.4728105646524569
  0.2057971284889169  0.5343592389838425  0.4725783133893215
  0.9489283904131777  0.5342481693954473  0.4726714539350482
  0.2014967660967980  0.2859780147738226  0.4738304857873706
  0.4506097543396606  0.2899545432073152  0.4729298673566918
  0.6983453472554106  0.2920938530731514  0.4722334538701325
  0.9485179728346399  0.2896709261599040  0.4730514721694104
  0.2019169561460891  0.0347295223653186  0.4736097282831589
  0.4520653511599035  0.0350424786712137  0.4735463535337908
  0.7016028804768831  0.0358177786385672  0.4732083773880627
  0.9513771124330822  0.0358215468243166  0.4732195843620622
 
  0.00000000E+00  0.00000000E+00  0.00000000E+00
  0.00000000E+00  0.00000000E+00  0.00000000E+00
  0.00000000E+00  0.00000000E+00  0.00000000E+00
  0.00000000E+00  0.00000000E+00  0.00000000E+00
  0.00000000E+00  0.00000000E+00  0.00000000E+00
  0.00000000E+00  0.00000000E+00  0.00000000E+00
  0.00000000E+00  0.00000000E+00  0.00000000E+00
  0.00000000E+00  0.00000000E+00  0.00000000E+00
  0.00000000E+00  0.00000000E+00  0.00000000E+00
  0.00000000E+00  0.00000000E+00  0.00000000E+00
  0.00000000E+00  0.00000000E+00  0.00000000E+00
  0.00000000E+00  0.00000000E+00  0.00000000E+00
  0.00000000E+00  0.00000000E+00  0.00000000E+00
  0.00000000E+00  0.00000000E+00  0.00000000E+00
  0.00000000E+00  0.00000000E+00  0.00000000E+00
  0.00000000E+00  0.00000000E+00  0.00000000E+00
  0.00000000E+00  0.00000000E+00  0.00000000E+00
  0.00000000E+00  0.00000000E+00  0.00000000E+00
  0.00000000E+00  0.00000000E+00  0.00000000E+00
  0.00000000E+00  0.00000000E+00  0.00000000E+00
  0.00000000E+00  0.00000000E+00  0.00000000E+00
  0.00000000E+00  0.00000000E+00  0.00000000E+00
  0.00000000E+00  0.00000000E+00  0.00000000E+00
  0.00000000E+00  0.00000000E+00  0.00000000E+00
  0.00000000E+00  0.00000000E+00  0.00000000E+00
  0.00000000E+00  0.00000000E+00  0.00000000E+00
  0.00000000E+00  0.00000000E+00  0.00000000E+00
  0.00000000E+00  0.00000000E+00  0.00000000E+00
  0.00000000E+00  0.00000000E+00  0.00000000E+00
  0.00000000E+00  0.00000000E+00  0.00000000E+00
  0.00000000E+00  0.00000000E+00  0.00000000E+00
  0.00000000E+00  0.00000000E+00  0.00000000E+00
  0.00000000E+00  0.00000000E+00  0.00000000E+00
  0.00000000E+00  0.00000000E+00  0.00000000E+00
  0.00000000E+00  0.00000000E+00  0.00000000E+00
  0.00000000E+00  0.00000000E+00  0.00000000E+00
  0.00000000E+00  0.00000000E+00  0.00000000E+00
  0.00000000E+00  0.00000000E+00  0.00000000E+00
  0.00000000E+00  0.00000000E+00  0.00000000E+00
  0.00000000E+00  0.00000000E+00  0.00000000E+00
  0.00000000E+00  0.00000000E+00  0.00000000E+00
  0.00000000E+00  0.00000000E+00  0.00000000E+00
  0.00000000E+00  0.00000000E+00  0.00000000E+00
  0.00000000E+00  0.00000000E+00  0.00000000E+00
  0.00000000E+00  0.00000000E+00  0.00000000E+00
  0.00000000E+00  0.00000000E+00  0.00000000E+00
  0.00000000E+00  0.00000000E+00  0.00000000E+00
  0.00000000E+00  0.00000000E+00  0.00000000E+00
  0.00000000E+00  0.00000000E+00  0.00000000E+00
  0.00000000E+00  0.00000000E+00  0.00000000E+00
  0.00000000E+00  0.00000000E+00  0.00000000E+00
  0.00000000E+00  0.00000000E+00  0.00000000E+00
  0.00000000E+00  0.00000000E+00  0.00000000E+00
  0.00000000E+00  0.00000000E+00  0.00000000E+00
  0.00000000E+00  0.00000000E+00  0.00000000E+00
  0.00000000E+00  0.00000000E+00  0.00000000E+00
  0.00000000E+00  0.00000000E+00  0.00000000E+00
  0.00000000E+00  0.00000000E+00  0.00000000E+00
  0.00000000E+00  0.00000000E+00  0.00000000E+00
  0.00000000E+00  0.00000000E+00  0.00000000E+00
  0.00000000E+00  0.00000000E+00  0.00000000E+00
  0.00000000E+00  0.00000000E+00  0.00000000E+00
  0.00000000E+00  0.00000000E+00  0.00000000E+00
  0.00000000E+00  0.00000000E+00  0.00000000E+00
  0.00000000E+00  0.00000000E+00  0.00000000E+00
  0.00000000E+00  0.00000000E+00  0.00000000E+00
  0.00000000E+00  0.00000000E+00  0.00000000E+00
  0.00000000E+00  0.00000000E+00  0.00000000E+00
  0.00000000E+00  0.00000000E+00  0.00000000E+00
  0.00000000E+00  0.00000000E+00  0.00000000E+00
  0.00000000E+00  0.00000000E+00  0.00000000E+00
  0.00000000E+00  0.00000000E+00  0.00000000E+00
  0.00000000E+00  0.00000000E+00  0.00000000E+00
  0.00000000E+00  0.00000000E+00  0.00000000E+00
  0.00000000E+00  0.00000000E+00  0.00000000E+00
  0.00000000E+00  0.00000000E+00  0.00000000E+00
  0.00000000E+00  0.00000000E+00  0.00000000E+00
  0.00000000E+00  0.00000000E+00  0.00000000E+00
  0.00000000E+00  0.00000000E+00  0.00000000E+00
  0.00000000E+00  0.00000000E+00  0.00000000E+00
  0.00000000E+00  0.00000000E+00  0.00000000E+00
  0.00000000E+00  0.00000000E+00  0.00000000E+00
  0.00000000E+00  0.00000000E+00  0.00000000E+00
  0.00000000E+00  0.00000000E+00  0.00000000E+00
  0.00000000E+00  0.00000000E+00  0.00000000E+00
  0.00000000E+00  0.00000000E+00  0.00000000E+00
  0.00000000E+00  0.00000000E+00  0.00000000E+00
  0.00000000E+00  0.00000000E+00  0.00000000E+00
  0.00000000E+00  0.00000000E+00  0.00000000E+00
  0.00000000E+00  0.00000000E+00  0.00000000E+00
  0.00000000E+00  0.00000000E+00  0.00000000E+00
  0.00000000E+00  0.00000000E+00  0.00000000E+00
  0.00000000E+00  0.00000000E+00  0.00000000E+00
  0.00000000E+00  0.00000000E+00  0.00000000E+00
  0.00000000E+00  0.00000000E+00  0.00000000E+00
  0.00000000E+00  0.00000000E+00  0.00000000E+00
