Pt   H                                  
   1.00000000000000     
    11.2227001190000006    0.0000000000000000    0.0000000000000000
     5.6113500595000003    9.7191434021000003    0.0000000000000000
     0.0000000000000000    0.0000000000000000   22.0000000000000000
   Pt   H 
    80    17
Direct
  0.7852650308992750  0.8689869877113452  0.3261788062887518
  0.0351644372104047  0.8689355791274878  0.3261637081256126
  0.0351625770215804  0.6189972173174851  0.3261394094342904
  0.7851685853363364  0.8687465390169820  0.0208081272632015
  0.0348093383562045  0.8687232908859812  0.0210866148254141
  0.0349092878919777  0.6190087087057705  0.0210519553174962
  0.6185086983778305  0.2019856742418753  0.1242583355349041
  0.3684308198542539  0.9522912511324861  0.1242413798873443
  0.0355606894321028  0.3688373426306839  0.3262744490099365
  0.0354388124731670  0.3681562035505266  0.0212005627879961
  0.8686216667973596  0.2020051949026538  0.1242756457658913
  0.9519488919869943  0.5354498538616710  0.2245964164611109
  0.2852213108551638  0.1191562162786681  0.3262932661813451
  0.5357323363362738  0.6192715982916397  0.3247599839196056
  0.2846268341706164  0.3682155315171798  0.3254679367573630
  0.2844305732142303  0.1191154136771786  0.0212662896131164
  0.5350890139127173  0.6186674937144190  0.0209349995785075
  0.2851037470352296  0.3687120079337092  0.0209407163229045
  0.6185805532171145  0.9520875866097498  0.1243628766753773
  0.7019566484209960  0.7855807958949441  0.2245111752269295
  0.8684808341729990  0.7022220382371600  0.1243618281268368
  0.6187425979503161  0.4519757093616832  0.1240428326503391
  0.2845174182426575  0.8704465281848286  0.3253452663838203
  0.2851029528278488  0.8687123679079178  0.0209405064472037
  0.6185180864773869  0.7022080429809066  0.1242145417928739
  0.2020953921645727  0.0351523429816822  0.2247412493154570
  0.8689513945334113  0.9523592258321756  0.4321628603405827
  0.1196637351305938  0.4525092820527803  0.4321407337737355
  0.1194167822484786  0.9516088280005093  0.4322245530170719
  0.8683878212760732  0.4523307229751765  0.4319273083829600
  0.3688858630088916  0.9518746462301166  0.4319498601267000
  0.8681466173508667  0.2028222491571654  0.4321494024580943
  0.1187997517248078  0.2023550999761028  0.4322564577999941
  0.6186927337123791  0.9526427871398369  0.4322129631760916
  0.8690590591896239  0.7021874280684628  0.4321309665347286
  0.3689554441539968  0.2031776689982934  0.4321618781387144
  0.3705802247339136  0.6988000968817403  0.4286212722872804
  0.6153798095476049  0.4539782886322286  0.4285850069065802
  0.1209946996710443  0.7012306903023173  0.4322411391085410
  0.6177302324838081  0.2044796991884255  0.4322836212569570
  0.5353618887376470  0.3682161117964711  0.3249708284826482
  0.5352058122345582  0.3686587325530226  0.0209520021798255
  0.5354455738385226  0.1187043381220718  0.3261531629294794
  0.5354077181692034  0.1184558848345034  0.0210768464068352
  0.8686972970487403  0.4519930997081616  0.1242302379314921
  0.1183582533144900  0.4521667180159170  0.1242432469316910
  0.0353427959176145  0.1188292024894366  0.3263469708690536
  0.0355088309282721  0.1190419981076261  0.0213033820905935
  0.1183498960278442  0.9522787509529209  0.1242994746301207
  0.3710080852756334  0.4544254706438906  0.4296439325937698
  0.4518269973655507  0.5355344162087832  0.2238435018864635
  0.6179954575651649  0.7014880935883454  0.4315968755924757
  0.3685316514360508  0.2020349944583799  0.1242515447555022
  0.1184809312971780  0.2022026496548790  0.1250575833121275
  0.9517507605804028  0.7855242712434105  0.2246030541488295
  0.7856394553187727  0.6189738592142930  0.3259860964345904
  0.2846492781907699  0.6189266146280588  0.3250210593635074
  0.7850079612145180  0.6191278208708155  0.0211369372649202
  0.2850592343228584  0.6188581340565307  0.0209825544627478
  0.3683201087045092  0.7024800574168211  0.1240643014712361
  0.3683461648542306  0.4519888196030735  0.1240390532020967
  0.2020745443200695  0.2857076040794340  0.2246218698046221
  0.7868579933546300  0.3680875251653646  0.3252974040142860
  0.7851117834107058  0.3687055759447517  0.0209415190856816
  0.9518229218371275  0.0355382795280548  0.2247080006629858
  0.4521039457584877  0.7855349883919942  0.2242468761031873
  0.7018919754676602  0.5357234159664088  0.2241969445345475
  0.2015997374146039  0.7854993442156086  0.2242856001126015
  0.4517642599771463  0.0356800884529989  0.2246065532163186
  0.1182851493408137  0.7022317095172355  0.1242651577565752
  0.7019115480073665  0.0354170763967332  0.2245578720592434
  0.7852591437951233  0.1187488264230012  0.3261612941250149
  0.5353895521693843  0.8692713119057700  0.3259906326300168
  0.7851246021399589  0.1183156866480743  0.0211595663560757
  0.5353828425582847  0.8686704704551929  0.0210945889839991
  0.2017043294568666  0.5357721637811608  0.2243048310086238
  0.9515318701715572  0.2856472260506422  0.2247514496208964
  0.8685071716077530  0.9520119896540535  0.1244288401920954
  0.7018704930386477  0.2852209333982927  0.2242504131549339
  0.4520953863975734  0.2853699888391432  0.2243239907423913
  0.4676112547745390  0.5508066733846348  0.5464996894196759
  0.5052264696146906  0.5864060051698701  0.5576978569323927
  0.7019006814545392  0.5352998295322848  0.4714308262803826
  0.2047988141586146  0.7840135161430482  0.4719765420977495
  0.4517643465963062  0.7853592996366601  0.4714575109057790
  0.7018213418294863  0.7853730927535452  0.4723835653264814
  0.9527662436252555  0.7852085169396972  0.4726102411178061
  0.2063908205341178  0.5342564376618313  0.4722796234289675
  0.9523048250962276  0.5358477060520883  0.4727336973402529
  0.2022384528400920  0.2858201740208699  0.4729932840404203
  0.4507225581620560  0.2899123362424518  0.4723147959425660
  0.7005738877773737  0.2882276193950730  0.4719665358617675
  0.9515038020616089  0.2858622144506100  0.4730187201897493
  0.2023658880134604  0.0350586031416711  0.4730307405439760
  0.4523158596569061  0.0358367864184430  0.4727839892378398
  0.7017718959376182  0.0362902813042751  0.4726492134515752
  0.9519332490677499  0.0354315305695394  0.4729090422618896
 
  0.00000000E+00  0.00000000E+00  0.00000000E+00
  0.00000000E+00  0.00000000E+00  0.00000000E+00
  0.00000000E+00  0.00000000E+00  0.00000000E+00
  0.00000000E+00  0.00000000E+00  0.00000000E+00
  0.00000000E+00  0.00000000E+00  0.00000000E+00
  0.00000000E+00  0.00000000E+00  0.00000000E+00
  0.00000000E+00  0.00000000E+00  0.00000000E+00
  0.00000000E+00  0.00000000E+00  0.00000000E+00
  0.00000000E+00  0.00000000E+00  0.00000000E+00
  0.00000000E+00  0.00000000E+00  0.00000000E+00
  0.00000000E+00  0.00000000E+00  0.00000000E+00
  0.00000000E+00  0.00000000E+00  0.00000000E+00
  0.00000000E+00  0.00000000E+00  0.00000000E+00
  0.00000000E+00  0.00000000E+00  0.00000000E+00
  0.00000000E+00  0.00000000E+00  0.00000000E+00
  0.00000000E+00  0.00000000E+00  0.00000000E+00
  0.00000000E+00  0.00000000E+00  0.00000000E+00
  0.00000000E+00  0.00000000E+00  0.00000000E+00
  0.00000000E+00  0.00000000E+00  0.00000000E+00
  0.00000000E+00  0.00000000E+00  0.00000000E+00
  0.00000000E+00  0.00000000E+00  0.00000000E+00
  0.00000000E+00  0.00000000E+00  0.00000000E+00
  0.00000000E+00  0.00000000E+00  0.00000000E+00
  0.00000000E+00  0.00000000E+00  0.00000000E+00
  0.00000000E+00  0.00000000E+00  0.00000000E+00
  0.00000000E+00  0.00000000E+00  0.00000000E+00
  0.00000000E+00  0.00000000E+00  0.00000000E+00
  0.00000000E+00  0.00000000E+00  0.00000000E+00
  0.00000000E+00  0.00000000E+00  0.00000000E+00
  0.00000000E+00  0.00000000E+00  0.00000000E+00
  0.00000000E+00  0.00000000E+00  0.00000000E+00
  0.00000000E+00  0.00000000E+00  0.00000000E+00
  0.00000000E+00  0.00000000E+00  0.00000000E+00
  0.00000000E+00  0.00000000E+00  0.00000000E+00
  0.00000000E+00  0.00000000E+00  0.00000000E+00
  0.00000000E+00  0.00000000E+00  0.00000000E+00
  0.00000000E+00  0.00000000E+00  0.00000000E+00
  0.00000000E+00  0.00000000E+00  0.00000000E+00
  0.00000000E+00  0.00000000E+00  0.00000000E+00
  0.00000000E+00  0.00000000E+00  0.00000000E+00
  0.00000000E+00  0.00000000E+00  0.00000000E+00
  0.00000000E+00  0.00000000E+00  0.00000000E+00
  0.00000000E+00  0.00000000E+00  0.00000000E+00
  0.00000000E+00  0.00000000E+00  0.00000000E+00
  0.00000000E+00  0.00000000E+00  0.00000000E+00
  0.00000000E+00  0.00000000E+00  0.00000000E+00
  0.00000000E+00  0.00000000E+00  0.00000000E+00
  0.00000000E+00  0.00000000E+00  0.00000000E+00
  0.00000000E+00  0.00000000E+00  0.00000000E+00
  0.00000000E+00  0.00000000E+00  0.00000000E+00
  0.00000000E+00  0.00000000E+00  0.00000000E+00
  0.00000000E+00  0.00000000E+00  0.00000000E+00
  0.00000000E+00  0.00000000E+00  0.00000000E+00
  0.00000000E+00  0.00000000E+00  0.00000000E+00
  0.00000000E+00  0.00000000E+00  0.00000000E+00
  0.00000000E+00  0.00000000E+00  0.00000000E+00
  0.00000000E+00  0.00000000E+00  0.00000000E+00
  0.00000000E+00  0.00000000E+00  0.00000000E+00
  0.00000000E+00  0.00000000E+00  0.00000000E+00
  0.00000000E+00  0.00000000E+00  0.00000000E+00
  0.00000000E+00  0.00000000E+00  0.00000000E+00
  0.00000000E+00  0.00000000E+00  0.00000000E+00
  0.00000000E+00  0.00000000E+00  0.00000000E+00
  0.00000000E+00  0.00000000E+00  0.00000000E+00
  0.00000000E+00  0.00000000E+00  0.00000000E+00
  0.00000000E+00  0.00000000E+00  0.00000000E+00
  0.00000000E+00  0.00000000E+00  0.00000000E+00
  0.00000000E+00  0.00000000E+00  0.00000000E+00
  0.00000000E+00  0.00000000E+00  0.00000000E+00
  0.00000000E+00  0.00000000E+00  0.00000000E+00
  0.00000000E+00  0.00000000E+00  0.00000000E+00
  0.00000000E+00  0.00000000E+00  0.00000000E+00
  0.00000000E+00  0.00000000E+00  0.00000000E+00
  0.00000000E+00  0.00000000E+00  0.00000000E+00
  0.00000000E+00  0.00000000E+00  0.00000000E+00
  0.00000000E+00  0.00000000E+00  0.00000000E+00
  0.00000000E+00  0.00000000E+00  0.00000000E+00
  0.00000000E+00  0.00000000E+00  0.00000000E+00
  0.00000000E+00  0.00000000E+00  0.00000000E+00
  0.00000000E+00  0.00000000E+00  0.00000000E+00
  0.00000000E+00  0.00000000E+00  0.00000000E+00
  0.00000000E+00  0.00000000E+00  0.00000000E+00
  0.00000000E+00  0.00000000E+00  0.00000000E+00
  0.00000000E+00  0.00000000E+00  0.00000000E+00
  0.00000000E+00  0.00000000E+00  0.00000000E+00
  0.00000000E+00  0.00000000E+00  0.00000000E+00
  0.00000000E+00  0.00000000E+00  0.00000000E+00
  0.00000000E+00  0.00000000E+00  0.00000000E+00
  0.00000000E+00  0.00000000E+00  0.00000000E+00
  0.00000000E+00  0.00000000E+00  0.00000000E+00
  0.00000000E+00  0.00000000E+00  0.00000000E+00
  0.00000000E+00  0.00000000E+00  0.00000000E+00
  0.00000000E+00  0.00000000E+00  0.00000000E+00
  0.00000000E+00  0.00000000E+00  0.00000000E+00
  0.00000000E+00  0.00000000E+00  0.00000000E+00
  0.00000000E+00  0.00000000E+00  0.00000000E+00
  0.00000000E+00  0.00000000E+00  0.00000000E+00
