10.46-high                              
   1.00000000000000     
    10.4600000381000005    0.0000000000000000    0.0000000000000000
     5.2300000191000002    9.0586257565999997    0.0000000000000000
     0.0000000000000000    0.0000000000000000   22.0000000000000000
   Pt   Fe   Co   Cu   Ni   H 
    42    10     9    10     9     1
Selective dynamics
Direct
  0.7775096606276293  0.8676415294531381  0.3227952270545487   F   F   F
  0.0383430907607476  0.8681698658507955  0.3252555357454554   F   F   F
  0.0342496180978671  0.6178509062505597  0.3277325552545420   F   F   F
  0.0307395431397666  0.3677700715224645  0.3260177384772760   F   F   F
  0.2875367879572366  0.1094442191054910  0.3235078396909117   F   F   F
  0.2850345837710719  0.3685105370279658  0.3239935014181796   F   F   F
  0.8646688719993207  0.7049857790015324  0.1222998450000006   F   F   F
  0.8698562693378946  0.9507234824140127  0.4319378736227293   F   F   F
  0.1177949986821645  0.4544671877851343  0.4408063378681817   F   F   F
  0.1199505358391662  0.9517891523466702  0.4303162166909118   F   F   F
  0.8685616542038019  0.4513468952419331  0.4315418565409104   F   F   F
  0.3701308420279972  0.9492088169704118  0.4277605734454539   F   F   F
  0.8692756966259836  0.2026692108416555  0.4277664574545454   F   F   F
  0.1177570645695880  0.1995529990829965  0.4453611315500012   F   F   F
  0.6196340123377979  0.9504102413357032  0.4311871605454556   F   F   F
  0.8684747537995392  0.7022104510240297  0.4359848558454544   F   F   F
  0.3714790653922151  0.1995970529506295  0.4371959844272695   F   F   F
  0.3692241877236242  0.7033507336538207  0.4310667083181841   F   F   F
  0.6205750344570617  0.4524299027712857  0.4288333839499998   F   F   F
  0.1194646396360497  0.7031052632745656  0.4458259030545477   F   F   F
  0.6194487945955629  0.2023438666471620  0.4337024913727276   F   F   F
  0.5391928224550426  0.3728969036433440  0.3217173568818197   F   F   F
  0.5335366930375258  0.1180933872359802  0.3231349967954529   F   F   F
  0.5387088449945026  0.1180223620035363  0.0323852710000025   F   F   F
  0.1229061669992149  0.4482501310026592  0.1229069019999969   F   F   F
  0.0345253113723558  0.1178222472235788  0.3203052637454533   F   F   F
  0.0334052510011063  0.1263050589948875  0.0270631940000001   F   F   F
  0.1140217539961768  0.9592387070046513  0.1256205170000015   F   F   F
  0.3682392409252060  0.4534591157612553  0.4313320220727306   F   F   F
  0.4535746069942803  0.5294572910030624  0.2203990980000015   F   F   F
  0.6184322144673757  0.7017034673243643  0.4354834236272751   F   F   F
  0.9489900690032442  0.7827401870017567  0.2236112900000009   F   F   F
  0.7739287658114904  0.6194563810312630  0.3227003681818204   F   F   F
  0.2898554194730281  0.6220344283341817  0.3245765670454546   F   F   F
  0.3775393079994345  0.6996762390014979  0.1228007950000034   F   F   F
  0.1990148359986961  0.2847226810005736  0.2228073859999995   F   F   F
  0.6985210319978847  0.5449136329982025  0.2191953660000010   F   F   F
  0.2021375509972643  0.7918219440044751  0.2238942059999971   F   F   F
  0.4509136879990976  0.0227837570008518  0.2188853569999978   F   F   F
  0.6963785559985993  0.0426407060053862  0.2154283309999983   F   F   F
  0.7837408540141979  0.1220912666575487  0.3198902521500031   F   F   F
  0.9473702909993094  0.2812973029980199  0.2183517329999987   F   F   F
  0.7886738530021518  0.8644281519958810  0.0287872629999981   F   F   F
  0.0450368569986850  0.8626276869984011  0.0295607660000030   F   F   F
  0.0419381929998366  0.6177767709989226  0.0278294189999997   F   F   F
  0.6176174129956635  0.2140363110030634  0.1243319940000021   F   F   F
  0.3690119070012230  0.9519866300047681  0.1225268520000000   F   F   F
  0.0249286510000459  0.3766440390049368  0.0322170279999980   F   F   F
  0.8625312130032441  0.2106725069980442  0.1232886749999977   F   F   F
  0.9476742869988115  0.5365924040032795  0.2262523169999966   F   F   F
  0.5332879830635022  0.6216604589605694  0.3269404366863640   F   F   F
  0.2883772690024173  0.1137155559991498  0.0325338950000003   F   F   F
  0.5504824240023964  0.6126948950017308  0.0356175679999993   F   F   F
  0.2897445219979105  0.3746422300013208  0.0322482019999981   F   F   F
  0.6142260530037902  0.9430302059974167  0.1245923580000010   F   F   F
  0.6989435809945590  0.7856200150022659  0.2205963350000033   F   F   F
  0.6229743600006756  0.4501393459961704  0.1238703839999999   F   F   F
  0.2905298675476828  0.8656643405636473  0.3207628656954569   F   F   F
  0.2909193859995014  0.8681523620037197  0.0312663890000024   F   F   F
  0.6201044439971781  0.7062132159990142  0.1241399159999972   F   F   F
  0.2056123299998021  0.0307007229984464  0.2259227360000011   F   F   F
  0.5362577209991812  0.3750078080027706  0.0295104469999998   F   F   F
  0.3717786720036287  0.2013498210002851  0.1265723710000017   F   F   F
  0.1215433559978081  0.7002740610051319  0.1260872539999980   F   F   F
  0.5313354132878416  0.8627164565559013  0.3221192042772714   F   F   F
  0.7868755759996588  0.1205942250019660  0.0274876929999976   F   F   F
  0.5384324900042401  0.8622688990003837  0.0293575660000016   F   F   F
  0.2017867139986862  0.5350951929952927  0.2228108750000004   F   F   F
  0.8649812590023060  0.9577480760013586  0.1220255770000023   F   F   F
  0.7014941730027431  0.2859032169987827  0.2208637760000016   F   F   F
  0.4474190369966706  0.2876733090006880  0.2205316149999987   F   F   F
  0.8678252290042252  0.4486707169946555  0.1240203380000011   F   F   F
  0.1229174259965049  0.2020265610008920  0.1240552120000018   F   F   F
  0.7843223469946352  0.6138231070037037  0.0322942649999973   F   F   F
  0.2837197769995612  0.6160386309958952  0.0336797160000017   F   F   F
  0.3761449209956851  0.4443194180052643  0.1229033580000021   F   F   F
  0.7813695325018841  0.3725857909452728  0.3211419491272736   F   F   F
  0.7825934670013694  0.3730426879969002  0.0335873089999978   F   F   F
  0.9480028170031005  0.0375464239983856  0.2205562589999985   F   F   F
  0.4523283130002156  0.7840277900017441  0.2263070449999987   F   F   F
  0.2095948437389410  0.2807501490330395  0.4885352411500030   T   T   T
 
  0.00000000E+00  0.00000000E+00  0.00000000E+00
  0.00000000E+00  0.00000000E+00  0.00000000E+00
  0.00000000E+00  0.00000000E+00  0.00000000E+00
  0.00000000E+00  0.00000000E+00  0.00000000E+00
  0.00000000E+00  0.00000000E+00  0.00000000E+00
  0.00000000E+00  0.00000000E+00  0.00000000E+00
  0.00000000E+00  0.00000000E+00  0.00000000E+00
  0.00000000E+00  0.00000000E+00  0.00000000E+00
  0.00000000E+00  0.00000000E+00  0.00000000E+00
  0.00000000E+00  0.00000000E+00  0.00000000E+00
  0.00000000E+00  0.00000000E+00  0.00000000E+00
  0.00000000E+00  0.00000000E+00  0.00000000E+00
  0.00000000E+00  0.00000000E+00  0.00000000E+00
  0.00000000E+00  0.00000000E+00  0.00000000E+00
  0.00000000E+00  0.00000000E+00  0.00000000E+00
  0.00000000E+00  0.00000000E+00  0.00000000E+00
  0.00000000E+00  0.00000000E+00  0.00000000E+00
  0.00000000E+00  0.00000000E+00  0.00000000E+00
  0.00000000E+00  0.00000000E+00  0.00000000E+00
  0.00000000E+00  0.00000000E+00  0.00000000E+00
  0.00000000E+00  0.00000000E+00  0.00000000E+00
  0.00000000E+00  0.00000000E+00  0.00000000E+00
  0.00000000E+00  0.00000000E+00  0.00000000E+00
  0.00000000E+00  0.00000000E+00  0.00000000E+00
  0.00000000E+00  0.00000000E+00  0.00000000E+00
  0.00000000E+00  0.00000000E+00  0.00000000E+00
  0.00000000E+00  0.00000000E+00  0.00000000E+00
  0.00000000E+00  0.00000000E+00  0.00000000E+00
  0.00000000E+00  0.00000000E+00  0.00000000E+00
  0.00000000E+00  0.00000000E+00  0.00000000E+00
  0.00000000E+00  0.00000000E+00  0.00000000E+00
  0.00000000E+00  0.00000000E+00  0.00000000E+00
  0.00000000E+00  0.00000000E+00  0.00000000E+00
  0.00000000E+00  0.00000000E+00  0.00000000E+00
  0.00000000E+00  0.00000000E+00  0.00000000E+00
  0.00000000E+00  0.00000000E+00  0.00000000E+00
  0.00000000E+00  0.00000000E+00  0.00000000E+00
  0.00000000E+00  0.00000000E+00  0.00000000E+00
  0.00000000E+00  0.00000000E+00  0.00000000E+00
  0.00000000E+00  0.00000000E+00  0.00000000E+00
  0.00000000E+00  0.00000000E+00  0.00000000E+00
  0.00000000E+00  0.00000000E+00  0.00000000E+00
  0.00000000E+00  0.00000000E+00  0.00000000E+00
  0.00000000E+00  0.00000000E+00  0.00000000E+00
  0.00000000E+00  0.00000000E+00  0.00000000E+00
  0.00000000E+00  0.00000000E+00  0.00000000E+00
  0.00000000E+00  0.00000000E+00  0.00000000E+00
  0.00000000E+00  0.00000000E+00  0.00000000E+00
  0.00000000E+00  0.00000000E+00  0.00000000E+00
  0.00000000E+00  0.00000000E+00  0.00000000E+00
  0.00000000E+00  0.00000000E+00  0.00000000E+00
  0.00000000E+00  0.00000000E+00  0.00000000E+00
  0.00000000E+00  0.00000000E+00  0.00000000E+00
  0.00000000E+00  0.00000000E+00  0.00000000E+00
  0.00000000E+00  0.00000000E+00  0.00000000E+00
  0.00000000E+00  0.00000000E+00  0.00000000E+00
  0.00000000E+00  0.00000000E+00  0.00000000E+00
  0.00000000E+00  0.00000000E+00  0.00000000E+00
  0.00000000E+00  0.00000000E+00  0.00000000E+00
  0.00000000E+00  0.00000000E+00  0.00000000E+00
  0.00000000E+00  0.00000000E+00  0.00000000E+00
  0.00000000E+00  0.00000000E+00  0.00000000E+00
  0.00000000E+00  0.00000000E+00  0.00000000E+00
  0.00000000E+00  0.00000000E+00  0.00000000E+00
  0.00000000E+00  0.00000000E+00  0.00000000E+00
  0.00000000E+00  0.00000000E+00  0.00000000E+00
  0.00000000E+00  0.00000000E+00  0.00000000E+00
  0.00000000E+00  0.00000000E+00  0.00000000E+00
  0.00000000E+00  0.00000000E+00  0.00000000E+00
  0.00000000E+00  0.00000000E+00  0.00000000E+00
  0.00000000E+00  0.00000000E+00  0.00000000E+00
  0.00000000E+00  0.00000000E+00  0.00000000E+00
  0.00000000E+00  0.00000000E+00  0.00000000E+00
  0.00000000E+00  0.00000000E+00  0.00000000E+00
  0.00000000E+00  0.00000000E+00  0.00000000E+00
  0.00000000E+00  0.00000000E+00  0.00000000E+00
  0.00000000E+00  0.00000000E+00  0.00000000E+00
  0.00000000E+00  0.00000000E+00  0.00000000E+00
  0.00000000E+00  0.00000000E+00  0.00000000E+00
  0.00000000E+00  0.00000000E+00  0.00000000E+00
  0.00000000E+00  0.00000000E+00  0.00000000E+00
