11.06                                   
   1.00000000000000     
    11.0600004195999997    0.0000000000000000    0.0000000000000000
     5.5300002097999998    9.5782413293000008    0.0000000000000000
     0.0000000000000000    0.0000000000000000   22.0000000000000000
   Pt   Fe   Co   Cu   Ni
    32    13    10    13    12
Direct
  0.7870340553340587  0.8804114891217708  0.3106373056407887
  0.0434892508549626  0.8805735545366679  0.3064030665222878
  0.2797562463143900  0.3779074318005859  0.3150517718140708
  0.8759031293348106  0.9637616680163222  0.4119322217084328
  0.1171426047088225  0.4669175542957218  0.4174074824445788
  0.1263302690090173  0.9589892802375318  0.4116383640058194
  0.8765661401232029  0.4564022629683525  0.4184547323881854
  0.3740975225564422  0.9592813055003248  0.4140644438012926
  0.8735887171493025  0.2109662210935321  0.4116891240189132
  0.1280800653796643  0.2126341102188194  0.4146457956605551
  0.6260181203691817  0.9584368024863391  0.4144071845373389
  0.8739059269022119  0.7131394690328721  0.4170647888321232
  0.3774235284533384  0.2058022352361332  0.4161609022777863
  0.3771882275866406  0.7118562582388650  0.4150203459128515
  0.6272163413053830  0.4621881109605079  0.4157046589679342
  0.1229067089229539  0.7112735121782802  0.4155314529303150
  0.6262313680965613  0.2086580241805699  0.4135604452710352
  0.5475023384416454  0.3772448747690632  0.3146380828380447
  0.5342335916917411  0.1259245401555317  0.3109779329852894
  0.5517907035692775  0.1237414160843378  0.0522380319976716
  0.1166403070001538  0.4478305367048332  0.1269050428982726
  0.0483143654389329  0.1346468877162807  0.3113693500109251
  0.0318634206632906  0.1321532286793480  0.0391436539790309
  0.1322902336854753  0.9574246671150199  0.1357499056703265
  0.3731158392646239  0.4603821143498293  0.4166330688086792
  0.4583302334604867  0.5505736616881801  0.2196229883750247
  0.6232689800102056  0.7105123677599537  0.4162409742331012
  0.9547310550014088  0.7790527017520976  0.2153140473862483
  0.7995087014468488  0.6233836971880480  0.3166890977184161
  0.2880754147042395  0.6299712421488515  0.3138979556777652
  0.1973038588467061  0.2737670855216915  0.2256946547145016
  0.7039440396769624  0.5536854017167108  0.2217252195575577
  0.0409250467497013  0.6331944115365842  0.3183762231825720
  0.7942667551035122  0.8599541229706690  0.0553496235804822
  0.0504003373006139  0.8628103274155940  0.0484924134480730
  0.0458392209568936  0.6458845459603899  0.0531647909790448
  0.6274855346423398  0.2338042520050146  0.1340709094597554
  0.3830354864143324  0.9521874920613852  0.1342572065875674
  0.0352917065947862  0.3839725917093214  0.3208993478252675
  0.0087826589815651  0.3763095084057957  0.0435932914236681
  0.8682239942054975  0.2198895605515225  0.1320713060835283
  0.9576874342194244  0.5384780366806549  0.2234689155314908
  0.3007063939538106  0.1143425706608132  0.3189411740422737
  0.5422550620582798  0.6262011618355376  0.3200211812899197
  0.2911501622505116  0.1122415390556693  0.0494274354700347
  0.5501148902343348  0.6255569737589131  0.0488264706944516
  0.3085145004482713  0.3835596446234251  0.0505624604715962
  0.6245341976611550  0.9433204780783231  0.1374917836210952
  0.7074861992484228  0.7893700323062562  0.2208180135950287
  0.8571241580678188  0.6893234213661392  0.1325387087838054
  0.6277723694726580  0.4599996828704939  0.1303307695235671
  0.2986655525907635  0.8736215912229813  0.3172965304706273
  0.3052197422771287  0.8770331463682890  0.0463809798966133
  0.6182318874257943  0.7191778517957136  0.1308751241863061
  0.2334164172343044  0.0220315628066383  0.2282939212121921
  0.5422124353382518  0.3830619451440559  0.0408535510425556
  0.3754399652228332  0.2045931610054095  0.1386052775922326
  0.1558647781395038  0.7043630098441144  0.1400214925549464
  0.7020978323702891  0.0565474128966596  0.2199129117664898
  0.7932365987987272  0.1294812258567365  0.3129231656726270
  0.5418803316470633  0.8708848674862179  0.3163293742897928
  0.7897065490974975  0.1294421438128263  0.0418056654232573
  0.5441043329352195  0.8775533958230571  0.0423234264075454
  0.2084291012072982  0.5357474079628941  0.2217233592451787
  0.9462833612897467  0.3039384823168500  0.2236098237475759
  0.8690563302500690  0.9770500116093747  0.1342576139043056
  0.7171106193427704  0.2969876676091771  0.2257845762148768
  0.4563820814933621  0.2976701910129962  0.2219475371085344
  0.8693529692375076  0.4543744225537149  0.1311308469793118
  0.1220030719508213  0.2018087212624017  0.1324010706855562
  0.7829019622181526  0.6202837550635190  0.0451729013087786
  0.2978972113268203  0.6241254916389045  0.0494225953448251
  0.3860904589700280  0.7174036682910754  0.1312306088961070
  0.3884240254763113  0.4538593918869961  0.1321607624830162
  0.7917896583856173  0.3857335106904468  0.3190047561264551
  0.7861851256453055  0.3745117542063258  0.0441340194812316
  0.9513544597591901  0.0659301343868866  0.2213817175790273
  0.4635982856883977  0.7951887142914336  0.2264081887855874
  0.2310835121474688  0.7963463801890057  0.2255315960944616
  0.4612243376668340  0.0241249826598357  0.2248505513216132
 
  0.00000000E+00  0.00000000E+00  0.00000000E+00
  0.00000000E+00  0.00000000E+00  0.00000000E+00
  0.00000000E+00  0.00000000E+00  0.00000000E+00
  0.00000000E+00  0.00000000E+00  0.00000000E+00
  0.00000000E+00  0.00000000E+00  0.00000000E+00
  0.00000000E+00  0.00000000E+00  0.00000000E+00
  0.00000000E+00  0.00000000E+00  0.00000000E+00
  0.00000000E+00  0.00000000E+00  0.00000000E+00
  0.00000000E+00  0.00000000E+00  0.00000000E+00
  0.00000000E+00  0.00000000E+00  0.00000000E+00
  0.00000000E+00  0.00000000E+00  0.00000000E+00
  0.00000000E+00  0.00000000E+00  0.00000000E+00
  0.00000000E+00  0.00000000E+00  0.00000000E+00
  0.00000000E+00  0.00000000E+00  0.00000000E+00
  0.00000000E+00  0.00000000E+00  0.00000000E+00
  0.00000000E+00  0.00000000E+00  0.00000000E+00
  0.00000000E+00  0.00000000E+00  0.00000000E+00
  0.00000000E+00  0.00000000E+00  0.00000000E+00
  0.00000000E+00  0.00000000E+00  0.00000000E+00
  0.00000000E+00  0.00000000E+00  0.00000000E+00
  0.00000000E+00  0.00000000E+00  0.00000000E+00
  0.00000000E+00  0.00000000E+00  0.00000000E+00
  0.00000000E+00  0.00000000E+00  0.00000000E+00
  0.00000000E+00  0.00000000E+00  0.00000000E+00
  0.00000000E+00  0.00000000E+00  0.00000000E+00
  0.00000000E+00  0.00000000E+00  0.00000000E+00
  0.00000000E+00  0.00000000E+00  0.00000000E+00
  0.00000000E+00  0.00000000E+00  0.00000000E+00
  0.00000000E+00  0.00000000E+00  0.00000000E+00
  0.00000000E+00  0.00000000E+00  0.00000000E+00
  0.00000000E+00  0.00000000E+00  0.00000000E+00
  0.00000000E+00  0.00000000E+00  0.00000000E+00
  0.00000000E+00  0.00000000E+00  0.00000000E+00
  0.00000000E+00  0.00000000E+00  0.00000000E+00
  0.00000000E+00  0.00000000E+00  0.00000000E+00
  0.00000000E+00  0.00000000E+00  0.00000000E+00
  0.00000000E+00  0.00000000E+00  0.00000000E+00
  0.00000000E+00  0.00000000E+00  0.00000000E+00
  0.00000000E+00  0.00000000E+00  0.00000000E+00
  0.00000000E+00  0.00000000E+00  0.00000000E+00
  0.00000000E+00  0.00000000E+00  0.00000000E+00
  0.00000000E+00  0.00000000E+00  0.00000000E+00
  0.00000000E+00  0.00000000E+00  0.00000000E+00
  0.00000000E+00  0.00000000E+00  0.00000000E+00
  0.00000000E+00  0.00000000E+00  0.00000000E+00
  0.00000000E+00  0.00000000E+00  0.00000000E+00
  0.00000000E+00  0.00000000E+00  0.00000000E+00
  0.00000000E+00  0.00000000E+00  0.00000000E+00
  0.00000000E+00  0.00000000E+00  0.00000000E+00
  0.00000000E+00  0.00000000E+00  0.00000000E+00
  0.00000000E+00  0.00000000E+00  0.00000000E+00
  0.00000000E+00  0.00000000E+00  0.00000000E+00
  0.00000000E+00  0.00000000E+00  0.00000000E+00
  0.00000000E+00  0.00000000E+00  0.00000000E+00
  0.00000000E+00  0.00000000E+00  0.00000000E+00
  0.00000000E+00  0.00000000E+00  0.00000000E+00
  0.00000000E+00  0.00000000E+00  0.00000000E+00
  0.00000000E+00  0.00000000E+00  0.00000000E+00
  0.00000000E+00  0.00000000E+00  0.00000000E+00
  0.00000000E+00  0.00000000E+00  0.00000000E+00
  0.00000000E+00  0.00000000E+00  0.00000000E+00
  0.00000000E+00  0.00000000E+00  0.00000000E+00
  0.00000000E+00  0.00000000E+00  0.00000000E+00
  0.00000000E+00  0.00000000E+00  0.00000000E+00
  0.00000000E+00  0.00000000E+00  0.00000000E+00
  0.00000000E+00  0.00000000E+00  0.00000000E+00
  0.00000000E+00  0.00000000E+00  0.00000000E+00
  0.00000000E+00  0.00000000E+00  0.00000000E+00
  0.00000000E+00  0.00000000E+00  0.00000000E+00
  0.00000000E+00  0.00000000E+00  0.00000000E+00
  0.00000000E+00  0.00000000E+00  0.00000000E+00
  0.00000000E+00  0.00000000E+00  0.00000000E+00
  0.00000000E+00  0.00000000E+00  0.00000000E+00
  0.00000000E+00  0.00000000E+00  0.00000000E+00
  0.00000000E+00  0.00000000E+00  0.00000000E+00
  0.00000000E+00  0.00000000E+00  0.00000000E+00
  0.00000000E+00  0.00000000E+00  0.00000000E+00
  0.00000000E+00  0.00000000E+00  0.00000000E+00
  0.00000000E+00  0.00000000E+00  0.00000000E+00
  0.00000000E+00  0.00000000E+00  0.00000000E+00
