Pt111                                   
   1.00000000000000     
    11.2227001190000006    0.0000000000000000    0.0000000000000000
     5.6113500595000003    9.7191434021000003    0.0000000000000000
     0.0000000000000000    0.0000000000000000   22.0000000000000000
   Pt
    80
Direct
  0.7839001098168318  0.8693211776987030  0.3268743218267921
  0.0341112803854070  0.8695946264323059  0.3270120355908472
  0.0339352755812170  0.6197878979078459  0.3271050666255714
  0.7877823445620761  0.8670808116024710  0.0232283754482327
  0.0374189139488919  0.8678257128741610  0.0234304415666082
  0.0373322342585823  0.6174421460281280  0.0235851769641753
  0.6196700208793083  0.2016706913500606  0.1262028172179099
  0.3696667899421979  0.9516547613612213  0.1262923522914232
  0.0347955109583498  0.3697220806045299  0.3271200681531227
  0.0372639361236812  0.3676454605568434  0.0236796519650510
  0.8697526374289283  0.2020118507598956  0.1263251728106925
  0.9516651470437090  0.5359154081787827  0.2267776717595957
  0.2848192645266137  0.1193455987623522  0.3271651076494186
  0.5341442167177468  0.6194268040180221  0.3271292140001338
  0.2849329029758177  0.3695601247041614  0.3272018493641263
  0.2879023679778049  0.1175834067175013  0.0234926877218311
  0.5368647565870325  0.6174166658229162  0.0232058141069610
  0.2871568024524006  0.3677685875244698  0.0236071656395830
  0.6195013167090186  0.9515151321409501  0.1261890620314018
  0.7013781988589423  0.7855267787285729  0.2264775985200042
  0.8691113435464672  0.7016533067028776  0.1263323943528245
  0.6190601391482320  0.4520350780856725  0.1262751496912139
  0.2842305210358987  0.8695316476676556  0.3270872409468457
  0.2874523635694037  0.8677275962688465  0.0232872904089642
  0.6188434323917396  0.7016322506190263  0.1261512333973432
  0.2020447200667614  0.0358558717636712  0.2267023099220109
  0.8668015852226746  0.9530364298070518  0.4297513604674564
  0.1175651693830341  0.4534260587904708  0.4300746048125406
  0.1165481913452697  0.9533609711066040  0.4298998492777510
  0.8676803179046217  0.4527244883082598  0.4298956043374061
  0.3665843574194090  0.9532704463393512  0.4301279633073739
  0.8672908865641016  0.2029548451543022  0.4297867180823026
  0.1172915412621251  0.2033021217078075  0.4299290240135091
  0.6170031811411421  0.9527776931413936  0.4299318797821342
  0.8667314312688437  0.7029952117150055  0.4299464482178556
  0.3674309434928765  0.2029583516873113  0.4300827950206274
  0.3670830075398458  0.7033439747319841  0.4301921076836913
  0.6175741947658988  0.4527073107832559  0.4299912273755311
  0.1169346702177062  0.7032847265630808  0.4299999286144427
  0.6173585737273699  0.2027811835747231  0.4298410179670397
  0.5346803063554048  0.3695715042630217  0.3270727713474940
  0.5374204721467677  0.3672202759292182  0.0233621174978209
  0.5348201269551588  0.1190463496568076  0.3269815021382839
  0.5376648772443836  0.1174060813462166  0.0233128439857449
  0.8692455338330929  0.4518739258322584  0.1263950536321135
  0.1194358391903523  0.4518368818702757  0.1266082093816020
  0.0345565605209694  0.1195261227277991  0.3268875284264198
  0.0377918282972315  0.1177576625052800  0.0234997229675581
  0.1197035971130546  0.9518153428470387  0.1263219517153273
  0.3673671289340992  0.4532841702497281  0.4301668603178333
  0.4515679195728198  0.5358825109602183  0.2267724293622291
  0.6171465510517171  0.7027322733279515  0.4300638490311828
  0.3698465057023552  0.2018257351366709  0.1265096085403146
  0.1199014270076048  0.2018933921800997  0.1264670229373654
  0.9513125968948571  0.7858982042936214  0.2266231591875164
  0.7840307791544164  0.6195018478899836  0.3269922117534732
  0.2842913156568384  0.6197132282414717  0.3271779511544739
  0.7871133338532101  0.6174546998477556  0.0232699033841503
  0.2871024521518651  0.6174712599449931  0.0234179754516055
  0.3689603496103356  0.7018763462935670  0.1263263623904750
  0.3693363278048034  0.4518405706382049  0.1265326674358878
  0.2023062191718401  0.2858015148340797  0.2269105132874720
  0.7845613477548694  0.3695950575274212  0.3269242067439033
  0.7872800860202421  0.3674893133604940  0.0233192888767533
  0.9520096648276333  0.0357924512699448  0.2265118037274690
  0.4512474930036990  0.7856480948085549  0.2266161127464915
  0.7015758819266549  0.5357284139973889  0.2266645739586544
  0.2013702917893806  0.7859845086539142  0.2267296699296110
  0.4519594503805157  0.0355971679690770  0.2266797066526939
  0.1191333629238757  0.7018294153258743  0.1264430731237271
  0.7019886934340458  0.0354528349820334  0.2264569614598821
  0.7844877856728876  0.1195389029304284  0.3267657492550788
  0.5341801402608454  0.8691704450488337  0.3270215949433558
  0.7878922158210937  0.1173367308236261  0.0233108066350487
  0.5375340891864046  0.8675428119694043  0.0231056558560337
  0.2016205838760401  0.5358683221326855  0.2269442804023714
  0.9521159187290397  0.2859282757231810  0.2266752526186798
  0.8695619235646013  0.9516372471589964  0.1262508714054391
  0.7021513583761083  0.2857846745602174  0.2264487304433678
  0.4523017754809276  0.2855922216494027  0.2267216929627333
 
  0.00000000E+00  0.00000000E+00  0.00000000E+00
  0.00000000E+00  0.00000000E+00  0.00000000E+00
  0.00000000E+00  0.00000000E+00  0.00000000E+00
  0.00000000E+00  0.00000000E+00  0.00000000E+00
  0.00000000E+00  0.00000000E+00  0.00000000E+00
  0.00000000E+00  0.00000000E+00  0.00000000E+00
  0.00000000E+00  0.00000000E+00  0.00000000E+00
  0.00000000E+00  0.00000000E+00  0.00000000E+00
  0.00000000E+00  0.00000000E+00  0.00000000E+00
  0.00000000E+00  0.00000000E+00  0.00000000E+00
  0.00000000E+00  0.00000000E+00  0.00000000E+00
  0.00000000E+00  0.00000000E+00  0.00000000E+00
  0.00000000E+00  0.00000000E+00  0.00000000E+00
  0.00000000E+00  0.00000000E+00  0.00000000E+00
  0.00000000E+00  0.00000000E+00  0.00000000E+00
  0.00000000E+00  0.00000000E+00  0.00000000E+00
  0.00000000E+00  0.00000000E+00  0.00000000E+00
  0.00000000E+00  0.00000000E+00  0.00000000E+00
  0.00000000E+00  0.00000000E+00  0.00000000E+00
  0.00000000E+00  0.00000000E+00  0.00000000E+00
  0.00000000E+00  0.00000000E+00  0.00000000E+00
  0.00000000E+00  0.00000000E+00  0.00000000E+00
  0.00000000E+00  0.00000000E+00  0.00000000E+00
  0.00000000E+00  0.00000000E+00  0.00000000E+00
  0.00000000E+00  0.00000000E+00  0.00000000E+00
  0.00000000E+00  0.00000000E+00  0.00000000E+00
  0.00000000E+00  0.00000000E+00  0.00000000E+00
  0.00000000E+00  0.00000000E+00  0.00000000E+00
  0.00000000E+00  0.00000000E+00  0.00000000E+00
  0.00000000E+00  0.00000000E+00  0.00000000E+00
  0.00000000E+00  0.00000000E+00  0.00000000E+00
  0.00000000E+00  0.00000000E+00  0.00000000E+00
  0.00000000E+00  0.00000000E+00  0.00000000E+00
  0.00000000E+00  0.00000000E+00  0.00000000E+00
  0.00000000E+00  0.00000000E+00  0.00000000E+00
  0.00000000E+00  0.00000000E+00  0.00000000E+00
  0.00000000E+00  0.00000000E+00  0.00000000E+00
  0.00000000E+00  0.00000000E+00  0.00000000E+00
  0.00000000E+00  0.00000000E+00  0.00000000E+00
  0.00000000E+00  0.00000000E+00  0.00000000E+00
  0.00000000E+00  0.00000000E+00  0.00000000E+00
  0.00000000E+00  0.00000000E+00  0.00000000E+00
  0.00000000E+00  0.00000000E+00  0.00000000E+00
  0.00000000E+00  0.00000000E+00  0.00000000E+00
  0.00000000E+00  0.00000000E+00  0.00000000E+00
  0.00000000E+00  0.00000000E+00  0.00000000E+00
  0.00000000E+00  0.00000000E+00  0.00000000E+00
  0.00000000E+00  0.00000000E+00  0.00000000E+00
  0.00000000E+00  0.00000000E+00  0.00000000E+00
  0.00000000E+00  0.00000000E+00  0.00000000E+00
  0.00000000E+00  0.00000000E+00  0.00000000E+00
  0.00000000E+00  0.00000000E+00  0.00000000E+00
  0.00000000E+00  0.00000000E+00  0.00000000E+00
  0.00000000E+00  0.00000000E+00  0.00000000E+00
  0.00000000E+00  0.00000000E+00  0.00000000E+00
  0.00000000E+00  0.00000000E+00  0.00000000E+00
  0.00000000E+00  0.00000000E+00  0.00000000E+00
  0.00000000E+00  0.00000000E+00  0.00000000E+00
  0.00000000E+00  0.00000000E+00  0.00000000E+00
  0.00000000E+00  0.00000000E+00  0.00000000E+00
  0.00000000E+00  0.00000000E+00  0.00000000E+00
  0.00000000E+00  0.00000000E+00  0.00000000E+00
  0.00000000E+00  0.00000000E+00  0.00000000E+00
  0.00000000E+00  0.00000000E+00  0.00000000E+00
  0.00000000E+00  0.00000000E+00  0.00000000E+00
  0.00000000E+00  0.00000000E+00  0.00000000E+00
  0.00000000E+00  0.00000000E+00  0.00000000E+00
  0.00000000E+00  0.00000000E+00  0.00000000E+00
  0.00000000E+00  0.00000000E+00  0.00000000E+00
  0.00000000E+00  0.00000000E+00  0.00000000E+00
  0.00000000E+00  0.00000000E+00  0.00000000E+00
  0.00000000E+00  0.00000000E+00  0.00000000E+00
  0.00000000E+00  0.00000000E+00  0.00000000E+00
  0.00000000E+00  0.00000000E+00  0.00000000E+00
  0.00000000E+00  0.00000000E+00  0.00000000E+00
  0.00000000E+00  0.00000000E+00  0.00000000E+00
  0.00000000E+00  0.00000000E+00  0.00000000E+00
  0.00000000E+00  0.00000000E+00  0.00000000E+00
  0.00000000E+00  0.00000000E+00  0.00000000E+00
  0.00000000E+00  0.00000000E+00  0.00000000E+00
