10.96                                   
   1.00000000000000     
    10.9600000381000005    0.0000000000000000    0.0000000000000000
     5.4800000191000002    9.4916384585000007    0.0000000000000000
     0.0000000000000000    0.0000000000000000   22.0000000000000000
   Pt   Fe   Co   Cu   Ni   H 
    32    13    10    13    12     1
Selective dynamics
Direct
  0.7861903970898898  0.8799038129516236  0.3131120174598365   T   T   T
  0.0438239510446454  0.8803815540256917  0.3105125781086294   T   T   T
  0.2795664859218381  0.3798098128453253  0.3162589843489694   T   T   T
  0.8741746642551237  0.9641382486903652  0.4150627687056314   T   T   T
  0.1175712811684915  0.4643511743356397  0.4193377769676012   T   T   T
  0.1244289489915909  0.9640364483439219  0.4140245130942459   T   T   T
  0.8760134225452325  0.4574356339099114  0.4201156184218371   T   T   T
  0.3742897861348465  0.9609874134184896  0.4149007268443400   T   T   T
  0.8729503355307403  0.2111069905888524  0.4139067125672440   T   T   T
  0.1274399834645972  0.2119638289172889  0.4159815052235266   T   T   T
  0.6253641300099291  0.9592141897239063  0.4166211331875370   T   T   T
  0.8740703740691688  0.7115142173566734  0.4190648678130356   T   T   T
  0.3756447691042677  0.2076300667869122  0.4180616212329053   T   T   T
  0.3780679315026281  0.7157533000667952  0.4188094094328225   T   T   T
  0.6293323286430662  0.4611922861062531  0.4164439093435960   T   T   T
  0.1191306633669676  0.7149960833716261  0.4202017208840189   T   T   T
  0.6259277449699189  0.2099459752354823  0.4157324247916349   T   T   T
  0.5471009891302044  0.3771597756976869  0.3152167151028658   T   T   T
  0.5339914999151576  0.1255215807662637  0.3124155129512234   T   T   T
  0.5522125408244705  0.1229980439735883  0.0492007837818207   F   F   F
  0.1179447475166739  0.4553776451871983  0.1279299605909117   F   F   F
  0.0461061976535056  0.1351744207196560  0.3116824315524266   T   T   T
  0.0331546293162290  0.1349486531119339  0.0377446314227257   F   F   F
  0.1316392841220875  0.9574759255143590  0.1340278734000009   F   F   F
  0.3760753291437456  0.4572041931164945  0.4204533710824866   T   T   T
  0.4566663465124705  0.5492648756265339  0.2193267658181810   F   F   F
  0.6229101790637456  0.7111058722022836  0.4172683348366742   T   T   T
  0.9558082579071581  0.7831430855589829  0.2183892191636332   F   F   F
  0.7980461126953560  0.6229597545988064  0.3171889873621702   T   T   T
  0.2900923973003178  0.6311845455812045  0.3159234493211663   T   T   T
  0.1986792080509545  0.2771687989594724  0.2254811289227305   F   F   F
  0.7045827475186641  0.5523289943798062  0.2213619481181794   F   F   F
  0.0417154523690283  0.6314897631988948  0.3205987535868988   T   T   T
  0.7920397940622550  0.8619624074885976  0.0511947968227275   F   F   F
  0.0526981245086802  0.8624210274643787  0.0444735392454518   F   F   F
  0.0457035805815948  0.6408036659206289  0.0458596178818169   F   F   F
  0.6280262762717825  0.2294732051187083  0.1337968902681794   F   F   F
  0.3825060135975420  0.9534483106544869  0.1327341964000013   F   F   F
  0.0353593566913158  0.3836037712786049  0.3212645445775997   T   T   T
  0.0161929607427993  0.3818764830379777  0.0412025564000018   F   F   F
  0.8704299207406763  0.2168907108715672  0.1317857703409118   F   F   F
  0.9563404382489509  0.5414389604039087  0.2237078816545477   F   F   F
  0.2992958707836783  0.1152312148799303  0.3188315061386002   T   T   T
  0.5411047071988876  0.6272632928721629  0.3200853833130513   T   T   T
  0.2929366193431733  0.1152265724702772  0.0453832930500013   F   F   F
  0.5520103083108907  0.6233459614553212  0.0478800615045429   F   F   F
  0.3057569488876624  0.3802645026968747  0.0468428708363646   F   F   F
  0.6239564555179768  0.9453132092873631  0.1363931434772709   F   F   F
  0.7083597009675202  0.7902410750572741  0.2210134316636356   F   F   F
  0.8605432662291435  0.6969997948958451  0.1321407462181838   F   F   F
  0.6280822250932729  0.4576845886507286  0.1300764273499979   F   F   F
  0.2975187243216404  0.8737375701234210  0.3171172503259758   T   T   T
  0.3062668485040945  0.8731072350821165  0.0445594179636331   F   F   F
  0.6226125853193309  0.7181745901936978  0.1307167480909115   F   F   F
  0.2304623798570589  0.0242330841830594  0.2276022954318151   F   F   F
  0.5428213397594490  0.3783856650780564  0.0401873396772743   F   F   F
  0.3772698501728584  0.2056045922453293  0.1374041287409113   F   F   F
  0.1480591264527078  0.7031483988334202  0.1372085456590924   F   F   F
  0.7035999555239911  0.0531163181998906  0.2207213082318162   F   F   F
  0.7935681826590100  0.1288597780967019  0.3141027322586548   T   T   T
  0.5403053197239420  0.8717043438521471  0.3160916668986510   T   T   T
  0.7916566268092922  0.1278317223843928  0.0406717152136338   F   F   F
  0.5477391611314957  0.8745077200413860  0.0407165425409062   F   F   F
  0.2081864432224165  0.5393639650818542  0.2229058860863660   F   F   F
  0.9479545332625037  0.3025804781289452  0.2228709549181787   F   F   F
  0.8695284713262765  0.9706931983749456  0.1330532267227298   F   F   F
  0.7178726439639220  0.2936926343421362  0.2256009570863640   F   F   F
  0.4565257253224786  0.2958654421023752  0.2224053839000035   F   F   F
  0.8724899802044774  0.4567009542507421  0.1303056939181815   F   F   F
  0.1243640075760553  0.2032220342603352  0.1319550582500000   F   F   F
  0.7873792025498005  0.6247287542742228  0.0440385979227287   F   F   F
  0.2993238400808877  0.6211331967054008  0.0480245963681796   F   F   F
  0.3856511081424543  0.7159506384289642  0.1307995094090941   F   F   F
  0.3847156394135922  0.4515386979644092  0.1311039896954540   F   F   F
  0.7936009639632516  0.3828051530470002  0.3190358346066727   T   T   T
  0.7893358288451608  0.3732859221083231  0.0438327165318171   F   F   F
  0.9536690361912719  0.0590088832448572  0.2213364501545456   F   F   F
  0.4606923424526741  0.7960359873835756  0.2256473434863651   F   F   F
  0.2223569724678214  0.7974698432936549  0.2249389915045441   F   F   F
  0.4608302578015682  0.0261812332914388  0.2241487908681847   F   F   F
  0.2911721539308293  0.6237333479651126  0.4594505573766520   T   T   T
 
  0.00000000E+00  0.00000000E+00  0.00000000E+00
  0.00000000E+00  0.00000000E+00  0.00000000E+00
  0.00000000E+00  0.00000000E+00  0.00000000E+00
  0.00000000E+00  0.00000000E+00  0.00000000E+00
  0.00000000E+00  0.00000000E+00  0.00000000E+00
  0.00000000E+00  0.00000000E+00  0.00000000E+00
  0.00000000E+00  0.00000000E+00  0.00000000E+00
  0.00000000E+00  0.00000000E+00  0.00000000E+00
  0.00000000E+00  0.00000000E+00  0.00000000E+00
  0.00000000E+00  0.00000000E+00  0.00000000E+00
  0.00000000E+00  0.00000000E+00  0.00000000E+00
  0.00000000E+00  0.00000000E+00  0.00000000E+00
  0.00000000E+00  0.00000000E+00  0.00000000E+00
  0.00000000E+00  0.00000000E+00  0.00000000E+00
  0.00000000E+00  0.00000000E+00  0.00000000E+00
  0.00000000E+00  0.00000000E+00  0.00000000E+00
  0.00000000E+00  0.00000000E+00  0.00000000E+00
  0.00000000E+00  0.00000000E+00  0.00000000E+00
  0.00000000E+00  0.00000000E+00  0.00000000E+00
  0.00000000E+00  0.00000000E+00  0.00000000E+00
  0.00000000E+00  0.00000000E+00  0.00000000E+00
  0.00000000E+00  0.00000000E+00  0.00000000E+00
  0.00000000E+00  0.00000000E+00  0.00000000E+00
  0.00000000E+00  0.00000000E+00  0.00000000E+00
  0.00000000E+00  0.00000000E+00  0.00000000E+00
  0.00000000E+00  0.00000000E+00  0.00000000E+00
  0.00000000E+00  0.00000000E+00  0.00000000E+00
  0.00000000E+00  0.00000000E+00  0.00000000E+00
  0.00000000E+00  0.00000000E+00  0.00000000E+00
  0.00000000E+00  0.00000000E+00  0.00000000E+00
  0.00000000E+00  0.00000000E+00  0.00000000E+00
  0.00000000E+00  0.00000000E+00  0.00000000E+00
  0.00000000E+00  0.00000000E+00  0.00000000E+00
  0.00000000E+00  0.00000000E+00  0.00000000E+00
  0.00000000E+00  0.00000000E+00  0.00000000E+00
  0.00000000E+00  0.00000000E+00  0.00000000E+00
  0.00000000E+00  0.00000000E+00  0.00000000E+00
  0.00000000E+00  0.00000000E+00  0.00000000E+00
  0.00000000E+00  0.00000000E+00  0.00000000E+00
  0.00000000E+00  0.00000000E+00  0.00000000E+00
  0.00000000E+00  0.00000000E+00  0.00000000E+00
  0.00000000E+00  0.00000000E+00  0.00000000E+00
  0.00000000E+00  0.00000000E+00  0.00000000E+00
  0.00000000E+00  0.00000000E+00  0.00000000E+00
  0.00000000E+00  0.00000000E+00  0.00000000E+00
  0.00000000E+00  0.00000000E+00  0.00000000E+00
  0.00000000E+00  0.00000000E+00  0.00000000E+00
  0.00000000E+00  0.00000000E+00  0.00000000E+00
  0.00000000E+00  0.00000000E+00  0.00000000E+00
  0.00000000E+00  0.00000000E+00  0.00000000E+00
  0.00000000E+00  0.00000000E+00  0.00000000E+00
  0.00000000E+00  0.00000000E+00  0.00000000E+00
  0.00000000E+00  0.00000000E+00  0.00000000E+00
  0.00000000E+00  0.00000000E+00  0.00000000E+00
  0.00000000E+00  0.00000000E+00  0.00000000E+00
  0.00000000E+00  0.00000000E+00  0.00000000E+00
  0.00000000E+00  0.00000000E+00  0.00000000E+00
  0.00000000E+00  0.00000000E+00  0.00000000E+00
  0.00000000E+00  0.00000000E+00  0.00000000E+00
  0.00000000E+00  0.00000000E+00  0.00000000E+00
  0.00000000E+00  0.00000000E+00  0.00000000E+00
  0.00000000E+00  0.00000000E+00  0.00000000E+00
  0.00000000E+00  0.00000000E+00  0.00000000E+00
  0.00000000E+00  0.00000000E+00  0.00000000E+00
  0.00000000E+00  0.00000000E+00  0.00000000E+00
  0.00000000E+00  0.00000000E+00  0.00000000E+00
  0.00000000E+00  0.00000000E+00  0.00000000E+00
  0.00000000E+00  0.00000000E+00  0.00000000E+00
  0.00000000E+00  0.00000000E+00  0.00000000E+00
  0.00000000E+00  0.00000000E+00  0.00000000E+00
  0.00000000E+00  0.00000000E+00  0.00000000E+00
  0.00000000E+00  0.00000000E+00  0.00000000E+00
  0.00000000E+00  0.00000000E+00  0.00000000E+00
  0.00000000E+00  0.00000000E+00  0.00000000E+00
  0.00000000E+00  0.00000000E+00  0.00000000E+00
  0.00000000E+00  0.00000000E+00  0.00000000E+00
  0.00000000E+00  0.00000000E+00  0.00000000E+00
  0.00000000E+00  0.00000000E+00  0.00000000E+00
  0.00000000E+00  0.00000000E+00  0.00000000E+00
  0.00000000E+00  0.00000000E+00  0.00000000E+00
  0.00000000E+00  0.00000000E+00  0.00000000E+00
