11.06                                   
   1.00000000000000     
    11.0600004195999997    0.0000000000000000    0.0000000000000000
     5.5300002097999998    9.5782413293000008    0.0000000000000000
     0.0000000000000000    0.0000000000000000   22.0000000000000000
   Pt   Fe   Co   Cu   Ni
    32    13    10    13    12
Direct
  0.7870340553340611  0.8804114891217694  0.3106373056407890
  0.0434892508549609  0.8805735545366673  0.3064030665222859
  0.2797562463143919  0.3779074318005868  0.3150517718140691
  0.8759031293348087  0.9637616680163248  0.4119322217084331
  0.1171426047088246  0.4669175542957191  0.4174074824445810
  0.1263302690090171  0.9589892802375317  0.4116383640058174
  0.8765661401232023  0.4564022629683535  0.4184547323881844
  0.3740975225564398  0.9592813055003262  0.4140644438012941
  0.8735887171493033  0.2109662210935355  0.4116891240189133
  0.1280800653796632  0.2126341102188221  0.4146457956605545
  0.6260181203691815  0.9584368024863394  0.4144071845373389
  0.8739059269022107  0.7131394690328747  0.4170647888321213
  0.3774235284533418  0.2058022352361348  0.4161609022777881
  0.3771882275866432  0.7118562582388677  0.4150203459128505
  0.6272163413053846  0.4621881109605113  0.4157046589679325
  0.1229067089229545  0.7112735121782805  0.4155314529303169
  0.6262313680965619  0.2086580241805720  0.4135604452710382
  0.5475023384416460  0.3772448747690618  0.3146380828380444
  0.5342335916917378  0.1259245401555305  0.3109779329852884
  0.5517907035692744  0.1237414160843358  0.0522380319976747
  0.1166403070001536  0.4478305367048350  0.1269050428982723
  0.0483143654389337  0.1346468877162792  0.3113693500109278
  0.0318634206632922  0.1321532286793499  0.0391436539790320
  0.1322902336854739  0.9574246671150206  0.1357499056703233
  0.3731158392646208  0.4603821143498266  0.4166330688086788
  0.4583302334604866  0.5505736616881833  0.2196229883750220
  0.6232689800102023  0.7105123677599536  0.4162409742330979
  0.9547310550014103  0.7790527017521001  0.2153140473862507
  0.7995087014468467  0.6233836971880464  0.3166890977184167
  0.2880754147042381  0.6299712421488550  0.3138979556777670
  0.1973038588467091  0.2737670855216905  0.2256946547145020
  0.7039440396769621  0.5536854017167130  0.2217252195575554
  0.0409250467496989  0.6331944115365857  0.3183762231825753
  0.7942667551035143  0.8599541229706702  0.0553496235804829
  0.0504003373006157  0.8628103274155947  0.0484924134480735
  0.0458392209568927  0.6458845459603921  0.0531647909790465
  0.6274855346423394  0.2338042520050152  0.1340709094597585
  0.3830354864143288  0.9521874920613840  0.1342572065875700
  0.0352917065947835  0.3839725917093233  0.3208993478252680
  0.0087826589815663  0.3763095084057966  0.0435932914236687
  0.8682239942055006  0.2198895605515219  0.1320713060835317
  0.9576874342194230  0.5384780366806581  0.2234689155314911
  0.3007063939538099  0.1143425706608099  0.3189411740422727
  0.5422550620582811  0.6262011618355388  0.3200211812899170
  0.2911501622505099  0.1122415390556668  0.0494274354700366
  0.5501148902343331  0.6255569737589113  0.0488264706944506
  0.3085145004482683  0.3835596446234248  0.0505624604715962
  0.6245341976611556  0.9433204780783200  0.1374917836210940
  0.7074861992484216  0.7893700323062589  0.2208180135950286
  0.8571241580678191  0.6893234213661401  0.1325387087838052
  0.6277723694726589  0.4599996828704960  0.1303307695235674
  0.2986655525907622  0.8736215912229781  0.3172965304706281
  0.3052197422771314  0.8770331463682908  0.0463809798966111
  0.6182318874257930  0.7191778517957133  0.1308751241863035
  0.2334164172343023  0.0220315628066388  0.2282939212121917
  0.5422124353382500  0.3830619451440569  0.0408535510425523
  0.3754399652228315  0.2045931610054126  0.1386052775922337
  0.1558647781395024  0.7043630098441156  0.1400214925549434
  0.7020978323702920  0.0565474128966628  0.2199129117664924
  0.7932365987987282  0.1294812258567362  0.3129231656726290
  0.5418803316470644  0.8708848674862182  0.3163293742897935
  0.7897065490974953  0.1294421438128239  0.0418056654232544
  0.5441043329352198  0.8775533958230568  0.0423234264075489
  0.2084291012073010  0.5357474079628943  0.2217233592451819
  0.9462833612897441  0.3039384823168518  0.2236098237475730
  0.8690563302500678  0.9770500116093714  0.1342576139043032
  0.7171106193427690  0.2969876676091801  0.2257845762148776
  0.4563820814933592  0.2976701910129975  0.2219475371085338
  0.8693529692375108  0.4543744225537125  0.1311308469793104
  0.1220030719508216  0.2018087212624025  0.1324010706855532
  0.7829019622181548  0.6202837550635181  0.0451729013087814
  0.2978972113268199  0.6241254916389067  0.0494225953448222
  0.3860904589700311  0.7174036682910767  0.1312306088961037
  0.3884240254763114  0.4538593918869935  0.1321607624830179
  0.7917896583856177  0.3857335106904500  0.3190047561264535
  0.7861851256453036  0.3745117542063241  0.0441340194812341
  0.9513544597591874  0.0659301343868890  0.2213817175790282
  0.4635982856883984  0.7951887142914345  0.2264081887855909
  0.2310835121474710  0.7963463801890072  0.2255315960944628
  0.4612243376668346  0.0241249826598349  0.2248505513216159
 
  0.00000000E+00  0.00000000E+00  0.00000000E+00
  0.00000000E+00  0.00000000E+00  0.00000000E+00
  0.00000000E+00  0.00000000E+00  0.00000000E+00
  0.00000000E+00  0.00000000E+00  0.00000000E+00
  0.00000000E+00  0.00000000E+00  0.00000000E+00
  0.00000000E+00  0.00000000E+00  0.00000000E+00
  0.00000000E+00  0.00000000E+00  0.00000000E+00
  0.00000000E+00  0.00000000E+00  0.00000000E+00
  0.00000000E+00  0.00000000E+00  0.00000000E+00
  0.00000000E+00  0.00000000E+00  0.00000000E+00
  0.00000000E+00  0.00000000E+00  0.00000000E+00
  0.00000000E+00  0.00000000E+00  0.00000000E+00
  0.00000000E+00  0.00000000E+00  0.00000000E+00
  0.00000000E+00  0.00000000E+00  0.00000000E+00
  0.00000000E+00  0.00000000E+00  0.00000000E+00
  0.00000000E+00  0.00000000E+00  0.00000000E+00
  0.00000000E+00  0.00000000E+00  0.00000000E+00
  0.00000000E+00  0.00000000E+00  0.00000000E+00
  0.00000000E+00  0.00000000E+00  0.00000000E+00
  0.00000000E+00  0.00000000E+00  0.00000000E+00
  0.00000000E+00  0.00000000E+00  0.00000000E+00
  0.00000000E+00  0.00000000E+00  0.00000000E+00
  0.00000000E+00  0.00000000E+00  0.00000000E+00
  0.00000000E+00  0.00000000E+00  0.00000000E+00
  0.00000000E+00  0.00000000E+00  0.00000000E+00
  0.00000000E+00  0.00000000E+00  0.00000000E+00
  0.00000000E+00  0.00000000E+00  0.00000000E+00
  0.00000000E+00  0.00000000E+00  0.00000000E+00
  0.00000000E+00  0.00000000E+00  0.00000000E+00
  0.00000000E+00  0.00000000E+00  0.00000000E+00
  0.00000000E+00  0.00000000E+00  0.00000000E+00
  0.00000000E+00  0.00000000E+00  0.00000000E+00
  0.00000000E+00  0.00000000E+00  0.00000000E+00
  0.00000000E+00  0.00000000E+00  0.00000000E+00
  0.00000000E+00  0.00000000E+00  0.00000000E+00
  0.00000000E+00  0.00000000E+00  0.00000000E+00
  0.00000000E+00  0.00000000E+00  0.00000000E+00
  0.00000000E+00  0.00000000E+00  0.00000000E+00
  0.00000000E+00  0.00000000E+00  0.00000000E+00
  0.00000000E+00  0.00000000E+00  0.00000000E+00
  0.00000000E+00  0.00000000E+00  0.00000000E+00
  0.00000000E+00  0.00000000E+00  0.00000000E+00
  0.00000000E+00  0.00000000E+00  0.00000000E+00
  0.00000000E+00  0.00000000E+00  0.00000000E+00
  0.00000000E+00  0.00000000E+00  0.00000000E+00
  0.00000000E+00  0.00000000E+00  0.00000000E+00
  0.00000000E+00  0.00000000E+00  0.00000000E+00
  0.00000000E+00  0.00000000E+00  0.00000000E+00
  0.00000000E+00  0.00000000E+00  0.00000000E+00
  0.00000000E+00  0.00000000E+00  0.00000000E+00
  0.00000000E+00  0.00000000E+00  0.00000000E+00
  0.00000000E+00  0.00000000E+00  0.00000000E+00
  0.00000000E+00  0.00000000E+00  0.00000000E+00
  0.00000000E+00  0.00000000E+00  0.00000000E+00
  0.00000000E+00  0.00000000E+00  0.00000000E+00
  0.00000000E+00  0.00000000E+00  0.00000000E+00
  0.00000000E+00  0.00000000E+00  0.00000000E+00
  0.00000000E+00  0.00000000E+00  0.00000000E+00
  0.00000000E+00  0.00000000E+00  0.00000000E+00
  0.00000000E+00  0.00000000E+00  0.00000000E+00
  0.00000000E+00  0.00000000E+00  0.00000000E+00
  0.00000000E+00  0.00000000E+00  0.00000000E+00
  0.00000000E+00  0.00000000E+00  0.00000000E+00
  0.00000000E+00  0.00000000E+00  0.00000000E+00
  0.00000000E+00  0.00000000E+00  0.00000000E+00
  0.00000000E+00  0.00000000E+00  0.00000000E+00
  0.00000000E+00  0.00000000E+00  0.00000000E+00
  0.00000000E+00  0.00000000E+00  0.00000000E+00
  0.00000000E+00  0.00000000E+00  0.00000000E+00
  0.00000000E+00  0.00000000E+00  0.00000000E+00
  0.00000000E+00  0.00000000E+00  0.00000000E+00
  0.00000000E+00  0.00000000E+00  0.00000000E+00
  0.00000000E+00  0.00000000E+00  0.00000000E+00
  0.00000000E+00  0.00000000E+00  0.00000000E+00
  0.00000000E+00  0.00000000E+00  0.00000000E+00
  0.00000000E+00  0.00000000E+00  0.00000000E+00
  0.00000000E+00  0.00000000E+00  0.00000000E+00
  0.00000000E+00  0.00000000E+00  0.00000000E+00
  0.00000000E+00  0.00000000E+00  0.00000000E+00
  0.00000000E+00  0.00000000E+00  0.00000000E+00
