Pt   H                                  
   1.00000000000000     
    11.2227001190000006    0.0000000000000000    0.0000000000000000
     5.6113500595000003    9.7191434021000003    0.0000000000000000
     0.0000000000000000    0.0000000000000000   22.0000000000000000
   Pt   H 
    80    17
Direct
  0.7855912635199767  0.8709810532420592  0.3293405565574977
  0.0352049155641439  0.8710717166113768  0.3293894239508329
  0.0350169496553892  0.6215005222465415  0.3294708704571193
  0.7848442544475327  0.8705546411411657  0.0240882397265942
  0.0346865153509525  0.8705379831132699  0.0243965309181862
  0.0346107414602614  0.6209438162681264  0.0243495262813979
  0.6184826858380791  0.2040831723280419  0.1276647236175634
  0.3682818724728388  0.9541868759114066  0.1277344705976311
  0.0351928996131590  0.3713152486930408  0.3295655335574383
  0.0352444730905744  0.3698580873809379  0.0246658425528234
  0.8684018174757013  0.2040527206192481  0.1276764451795931
  0.9518469810979233  0.5375858897662288  0.2279587971962252
  0.2853622087504679  0.1210107764593840  0.3295717830391166
  0.5355005748551720  0.6217510584945191  0.3283833800982064
  0.2845516972068121  0.3704313561541880  0.3286914008875185
  0.2842200977899247  0.1209842653257431  0.0245804113656163
  0.5349212314073963  0.6206646101156920  0.0243010368184402
  0.2847857752877759  0.3706364497969387  0.0243042745830747
  0.6185407391723499  0.9540640585603987  0.1277245139382459
  0.7017360682753206  0.7878473313630564  0.2277593158158389
  0.8680166678188010  0.7045031975725676  0.1278365168877771
  0.6184297346869903  0.4543656337431669  0.1276645383140405
  0.2845946324874833  0.8726330233579200  0.3287581149063192
  0.2848150822383419  0.8706838659178188  0.0243044055986498
  0.6183902406877424  0.7042310903742157  0.1277572136331664
  0.2021122875476253  0.0371511314660044  0.2278886955913173
  0.8692959096868496  0.9544686482583956  0.4354275611286900
  0.1193834807400034  0.4550365537790282  0.4355472012640154
  0.1195502600314420  0.9538828728816044  0.4355019647942912
  0.8682853463818481  0.4546304809848114  0.4356691210464646
  0.3687985561797782  0.9538496618514761  0.4354122305272490
  0.8689237433680173  0.2046906356017507  0.4355016207309118
  0.1189532609703618  0.2042689142385943  0.4355876388253044
  0.6188205119434205  0.9546876415802591  0.4354280401782245
  0.8692744021340979  0.7044347727672471  0.4354922849630339
  0.3693219590643470  0.2049940461613332  0.4353290610351134
  0.3711545361749117  0.7002442107787862  0.4330832682579258
  0.6155008700548581  0.4563433292630374  0.4321799745131944
  0.1208346836065664  0.7034981949714735  0.4357291647094729
  0.6178527422141560  0.2062079077737189  0.4352179850512272
  0.5354646787943831  0.3704988916309051  0.3282406513712628
  0.5348743664697598  0.3707268147627424  0.0242670353513190
  0.5353857966702907  0.1208030561749982  0.3292624313724486
  0.5352757050879282  0.1204791807159223  0.0243892639531753
  0.8683884785603988  0.4542608897813101  0.1278050507533394
  0.1182881664035701  0.4541268498612333  0.1278033745067176
  0.0355197651738565  0.1210128147605094  0.3296543529093310
  0.0352342027024174  0.1210547814257356  0.0245719018576127
  0.1182409726042936  0.9542582076412934  0.1277052714303587
  0.3708375256958027  0.4562841577498274  0.4328014465128789
  0.4518074689080720  0.5375809733272279  0.2271602840958466
  0.6178766383823155  0.7032508852155981  0.4357718870268945
  0.3680683236154612  0.2042118354128134  0.1277139881573088
  0.1185502295676852  0.2039973458691489  0.1286061271826047
  0.9517308590686693  0.7878665607728533  0.2277345983406895
  0.7853534050815342  0.6214180644221738  0.3294254809297791
  0.2845604720205647  0.6216425212065068  0.3283985608395465
  0.7847847999002744  0.6210304689238785  0.0244451727502464
  0.2846762629183023  0.6206836890191082  0.0242996089526336
  0.3682667477826112  0.7044033209185460  0.1275286819187380
  0.3681618083971715  0.4543133375327833  0.1275809478330091
  0.2019173517704005  0.2879244854792759  0.2279697737560833
  0.7870175402288896  0.3703562702701547  0.3286026267141733
  0.7848076980965786  0.3706308745131079  0.0242494363897976
  0.9517695607323415  0.0376892934704942  0.2278571238738136
  0.4521542416235273  0.7875990694610741  0.2274107304562887
  0.7018679367979784  0.5379605876456863  0.2274045175968998
  0.2014999708086782  0.7874998475888583  0.2275128387250908
  0.4518317937458746  0.0375826868255535  0.2279195334692767
  0.1181870029862198  0.7044262922617522  0.1276996696422543
  0.7019720128594497  0.0375972464311675  0.2276727248634916
  0.7856283257840975  0.1210205455749859  0.3292001692437357
  0.5355744157619118  0.8712042518422369  0.3293229383079993
  0.7846597975094441  0.1204333303667639  0.0244509262634289
  0.5350852709271265  0.8706685155360573  0.0244344417939875
  0.2016668669302786  0.5380488153840549  0.2276003910343897
  0.9514785113267124  0.2879928394310158  0.2280759821717468
  0.8682155951819461  0.9542536925044445  0.1278122399440664
  0.7016066827141316  0.2875573740156259  0.2275897155794805
  0.4519834476490159  0.2876104332979416  0.2276114771312441
  0.4674644663939044  0.4859839876920854  0.5464469692286255
  0.5289995454631014  0.4793292797081697  0.5622054893099311
  0.7013298793185461  0.5377136118546164  0.4753916690149371
  0.2061984398522627  0.7854985707491559  0.4756220141686004
  0.4509749752810644  0.7852909777087702  0.4756686199202821
  0.7019052530004317  0.7878929945687404  0.4758732589316407
  0.9526861096071076  0.7878579635874063  0.4757557541322833
  0.2049547843098030  0.5369648204827683  0.4754963373355107
  0.9521466216541195  0.5383769289893053  0.4760817032999368
  0.2025200864349911  0.2882723466573272  0.4761829225342793
  0.4515364329428720  0.2898235837123618  0.4750896383909019
  0.7032042692381545  0.2868043858723238  0.4750525725771502
  0.9519047282728741  0.2882501564785906  0.4762896497684632
  0.2024685059177065  0.0377080530578317  0.4760935975857619
  0.4524802627948450  0.0377022246736321  0.4758823748757441
  0.7019474703376962  0.0383628462428710  0.4754698726152063
  0.9526732623261102  0.0373046862207317  0.4758676735059303
 
             NaN             NaN             NaN
             NaN             NaN             NaN
             NaN             NaN             NaN
             NaN             NaN             NaN
             NaN             NaN             NaN
             NaN             NaN             NaN
             NaN             NaN             NaN
             NaN             NaN             NaN
             NaN             NaN             NaN
             NaN             NaN             NaN
             NaN             NaN             NaN
             NaN             NaN             NaN
             NaN             NaN             NaN
             NaN             NaN             NaN
             NaN             NaN             NaN
             NaN             NaN             NaN
             NaN             NaN             NaN
             NaN             NaN             NaN
             NaN             NaN             NaN
             NaN             NaN             NaN
             NaN             NaN             NaN
             NaN             NaN             NaN
             NaN             NaN             NaN
             NaN             NaN             NaN
             NaN             NaN             NaN
             NaN             NaN             NaN
             NaN             NaN             NaN
             NaN             NaN             NaN
             NaN             NaN             NaN
             NaN             NaN             NaN
             NaN             NaN             NaN
             NaN             NaN             NaN
             NaN             NaN             NaN
             NaN             NaN             NaN
             NaN             NaN             NaN
             NaN             NaN             NaN
             NaN             NaN             NaN
             NaN             NaN             NaN
             NaN             NaN             NaN
             NaN             NaN             NaN
             NaN             NaN             NaN
             NaN             NaN             NaN
             NaN             NaN             NaN
             NaN             NaN             NaN
             NaN             NaN             NaN
             NaN             NaN             NaN
             NaN             NaN             NaN
             NaN             NaN             NaN
             NaN             NaN             NaN
             NaN             NaN             NaN
             NaN             NaN             NaN
             NaN             NaN             NaN
             NaN             NaN             NaN
             NaN             NaN             NaN
             NaN             NaN             NaN
             NaN             NaN             NaN
             NaN             NaN             NaN
             NaN             NaN             NaN
             NaN             NaN             NaN
             NaN             NaN             NaN
             NaN             NaN             NaN
             NaN             NaN             NaN
             NaN             NaN             NaN
             NaN             NaN             NaN
             NaN             NaN             NaN
             NaN             NaN             NaN
             NaN             NaN             NaN
             NaN             NaN             NaN
             NaN             NaN             NaN
             NaN             NaN             NaN
             NaN             NaN             NaN
             NaN             NaN             NaN
             NaN             NaN             NaN
             NaN             NaN             NaN
             NaN             NaN             NaN
             NaN             NaN             NaN
             NaN             NaN             NaN
             NaN             NaN             NaN
             NaN             NaN             NaN
             NaN             NaN             NaN
             NaN             NaN             NaN
             NaN             NaN             NaN
             NaN             NaN             NaN
             NaN             NaN             NaN
             NaN             NaN             NaN
             NaN             NaN             NaN
             NaN             NaN             NaN
             NaN             NaN             NaN
             NaN             NaN             NaN
             NaN             NaN             NaN
             NaN             NaN             NaN
             NaN             NaN             NaN
             NaN             NaN             NaN
             NaN             NaN             NaN
             NaN             NaN             NaN
             NaN             NaN             NaN
             NaN             NaN             NaN
