10.66                                   
   1.00000000000000     
    10.6599998474000000    0.0000000000000000    0.0000000000000000
     5.3299999237000000    9.2318306721999992    0.0000000000000000
     0.0000000000000000    0.0000000000000000   22.0000000000000000
   Pt   Fe   Co   Cu   Ni   H 
    32    13    10    13    12     1
Selective dynamics
Direct
  0.7876052705704026  0.8773263893898857  0.3174387228454520   F   F   F
  0.0428548788966125  0.8820857815581462  0.3143231806909057   F   F   F
  0.2801639219229131  0.3796088053318769  0.3186839196227282   F   F   F
  0.8761991535763300  0.9629739776283657  0.4210961563863620   F   F   F
  0.1216900666628931  0.4621337211640295  0.4257091897045484   F   F   F
  0.1254603948319755  0.9600166608978711  0.4197944563954579   F   F   F
  0.8764314238665420  0.4563106658991742  0.4243436621000001   F   F   F
  0.3722051215655071  0.9607691484647134  0.4186962383545421   F   F   F
  0.8743724594844124  0.2104212079138037  0.4192094687590924   F   F   F
  0.1261836851347198  0.2104601861308808  0.4210154366454546   F   F   F
  0.6229777022240768  0.9638631228143524  0.4248326766499986   F   F   F
  0.8779090093914235  0.7083161908819662  0.4277090205363621   F   F   F
  0.3739441135476156  0.2095601045658029  0.4231785923181803   F   F   F
  0.3757728994451597  0.7115927717546100  0.4216463975818172   F   F   F
  0.6263276151983490  0.4608522491981688  0.4204071225818211   F   F   F
  0.1248779945706460  0.7104091646036537  0.4240258191090902   F   F   F
  0.6253915047174843  0.2107844963469532  0.4206667707045426   F   F   F
  0.5485920318313759  0.3744745179859521  0.3162688276954526   F   F   F
  0.5355065939335759  0.1234159871487890  0.3153499788772720   F   F   F
  0.5486022592113002  0.1220783678684398  0.0417194611409073   F   F   F
  0.1203770114094098  0.4596758926676330  0.1283201030954544   F   F   F
  0.0438110671130261  0.1362840301424413  0.3134220477181842   F   F   F
  0.0418426388172080  0.1305148925801163  0.0343023685500015   F   F   F
  0.1308766909586225  0.9576410281464973  0.1324593496136330   F   F   F
  0.3748198361965152  0.4607232556277410  0.4242316821954546   F   F   F
  0.4554567708790813  0.5456125258089983  0.2186253100500011   F   F   F
  0.6221196965531774  0.7083842367032460  0.4245886584499985   F   F   F
  0.9556724034214170  0.7885990747342291  0.2208023097863645   F   F   F
  0.7944387853508204  0.6228200392706924  0.3193067539909080   F   F   F
  0.2914951952986513  0.6302513259825062  0.3173088024954538   F   F   F
  0.2026570314514302  0.2793606238214750  0.2252794232954543   F   F   F
  0.7062648766635249  0.5498604482733995  0.2211017409272742   F   F   F
  0.0407970240837159  0.6302234598084908  0.3243233433590902   F   F   F
  0.7960105560665554  0.8618201000109948  0.0435832611454572   F   F   F
  0.0565437832242921  0.8651109997121225  0.0392200758363614   F   F   F
  0.0435481061810350  0.6317236463144766  0.0389093084545422   F   F   F
  0.6276815134142240  0.2235163201393817  0.1293691217272723   F   F   F
  0.3825164796165623  0.9540841432375444  0.1307328652727264   F   F   F
  0.0358948525289335  0.3832758957716891  0.3234345022045488   F   F   F
  0.0278953743126209  0.3811135671600852  0.0392268803136346   F   F   F
  0.8723854835080758  0.2152433571581582  0.1290949134499968   F   F   F
  0.9549832273266858  0.5442374240062477  0.2242583637181852   F   F   F
  0.2974511514695664  0.1150637621960229  0.3204742986636333   F   F   F
  0.5404386745177518  0.6286944235424201  0.3211142720499964   F   F   F
  0.2959387413066850  0.1156684851700760  0.0410976887409120   F   F   F
  0.5491575652165039  0.6253534475437093  0.0451299578272710   F   F   F
  0.2944436057289366  0.3818825695120651  0.0395469972636349   F   F   F
  0.6257779840731033  0.9479981115397109  0.1328387403227254   F   F   F
  0.7063964515204688  0.7936016081687995  0.2207639073818157   F   F   F
  0.8652306351059451  0.7044347069518153  0.1296516185590875   F   F   F
  0.6267408805099777  0.4597839886277342  0.1279108792227248   F   F   F
  0.2982176879532474  0.8744942275328924  0.3176000651318205   F   F   F
  0.3065683121091567  0.8685951938597540  0.0415361194227302   F   F   F
  0.6265607890783187  0.7150544964909855  0.1290314723727306   F   F   F
  0.2257557319317911  0.0273713698585212  0.2273912863363634   F   F   F
  0.5442540274210828  0.3813987627289208  0.0359396309863627   F   F   F
  0.3788308164937106  0.2041435759404919  0.1334105030954547   F   F   F
  0.1370202990309650  0.7046968196449441  0.1327566403363605   F   F   F
  0.7048938019252660  0.0498803503282019  0.2207634664272717   F   F   F
  0.7932654287563423  0.1292612981186352  0.3161367968636384   F   F   F
  0.5394123498860637  0.8718950437250399  0.3176463331409067   F   F   F
  0.7969090446290110  0.1230080278139880  0.0358981495909063   F   F   F
  0.5463967724760010  0.8699164031445790  0.0370350138545490   F   F   F
  0.2079614585554665  0.5419192345745003  0.2237260012863658   F   F   F
  0.9512071016331447  0.2976989277409530  0.2216281577000032   F   F   F
  0.8720363512232439  0.9641267701868443  0.1296642823045460   F   F   F
  0.7155487297000818  0.2897887699626196  0.2234509230272721   F   F   F
  0.4575972644690012  0.2915465886744428  0.2208827895454561   F   F   F
  0.8754952507754368  0.4570332552356646  0.1289402077090926   F   F   F
  0.1280802376379100  0.2061871464271974  0.1293457843363655   F   F   F
  0.7920109362154477  0.6217651118845851  0.0414976089772736   F   F   F
  0.2975223793196520  0.6287043760646469  0.0435603156136395   F   F   F
  0.3861497401569878  0.7125257726301442  0.1296682481727274   F   F   F
  0.3823461753116746  0.4514638794503369  0.1268844718136393   F   F   F
  0.7932318898169086  0.3793537616592175  0.3197622393863639   F   F   F
  0.7914206266351727  0.3768939204309305  0.0409385091409078   F   F   F
  0.9555634392163270  0.0534033135361369  0.2214041014636337   F   F   F
  0.4589841340430851  0.7965145233050137  0.2249800227136376   F   F   F
  0.2154455637840442  0.7972312105943473  0.2244927407136359   F   F   F
  0.4628802070168447  0.0289860370820918  0.2230396886181794   F   F   F
  0.6980653007703879  0.8102824713765456  0.4701373785363636   T   T   T
 
  0.00000000E+00  0.00000000E+00  0.00000000E+00
  0.00000000E+00  0.00000000E+00  0.00000000E+00
  0.00000000E+00  0.00000000E+00  0.00000000E+00
  0.00000000E+00  0.00000000E+00  0.00000000E+00
  0.00000000E+00  0.00000000E+00  0.00000000E+00
  0.00000000E+00  0.00000000E+00  0.00000000E+00
  0.00000000E+00  0.00000000E+00  0.00000000E+00
  0.00000000E+00  0.00000000E+00  0.00000000E+00
  0.00000000E+00  0.00000000E+00  0.00000000E+00
  0.00000000E+00  0.00000000E+00  0.00000000E+00
  0.00000000E+00  0.00000000E+00  0.00000000E+00
  0.00000000E+00  0.00000000E+00  0.00000000E+00
  0.00000000E+00  0.00000000E+00  0.00000000E+00
  0.00000000E+00  0.00000000E+00  0.00000000E+00
  0.00000000E+00  0.00000000E+00  0.00000000E+00
  0.00000000E+00  0.00000000E+00  0.00000000E+00
  0.00000000E+00  0.00000000E+00  0.00000000E+00
  0.00000000E+00  0.00000000E+00  0.00000000E+00
  0.00000000E+00  0.00000000E+00  0.00000000E+00
  0.00000000E+00  0.00000000E+00  0.00000000E+00
  0.00000000E+00  0.00000000E+00  0.00000000E+00
  0.00000000E+00  0.00000000E+00  0.00000000E+00
  0.00000000E+00  0.00000000E+00  0.00000000E+00
  0.00000000E+00  0.00000000E+00  0.00000000E+00
  0.00000000E+00  0.00000000E+00  0.00000000E+00
  0.00000000E+00  0.00000000E+00  0.00000000E+00
  0.00000000E+00  0.00000000E+00  0.00000000E+00
  0.00000000E+00  0.00000000E+00  0.00000000E+00
  0.00000000E+00  0.00000000E+00  0.00000000E+00
  0.00000000E+00  0.00000000E+00  0.00000000E+00
  0.00000000E+00  0.00000000E+00  0.00000000E+00
  0.00000000E+00  0.00000000E+00  0.00000000E+00
  0.00000000E+00  0.00000000E+00  0.00000000E+00
  0.00000000E+00  0.00000000E+00  0.00000000E+00
  0.00000000E+00  0.00000000E+00  0.00000000E+00
  0.00000000E+00  0.00000000E+00  0.00000000E+00
  0.00000000E+00  0.00000000E+00  0.00000000E+00
  0.00000000E+00  0.00000000E+00  0.00000000E+00
  0.00000000E+00  0.00000000E+00  0.00000000E+00
  0.00000000E+00  0.00000000E+00  0.00000000E+00
  0.00000000E+00  0.00000000E+00  0.00000000E+00
  0.00000000E+00  0.00000000E+00  0.00000000E+00
  0.00000000E+00  0.00000000E+00  0.00000000E+00
  0.00000000E+00  0.00000000E+00  0.00000000E+00
  0.00000000E+00  0.00000000E+00  0.00000000E+00
  0.00000000E+00  0.00000000E+00  0.00000000E+00
  0.00000000E+00  0.00000000E+00  0.00000000E+00
  0.00000000E+00  0.00000000E+00  0.00000000E+00
  0.00000000E+00  0.00000000E+00  0.00000000E+00
  0.00000000E+00  0.00000000E+00  0.00000000E+00
  0.00000000E+00  0.00000000E+00  0.00000000E+00
  0.00000000E+00  0.00000000E+00  0.00000000E+00
  0.00000000E+00  0.00000000E+00  0.00000000E+00
  0.00000000E+00  0.00000000E+00  0.00000000E+00
  0.00000000E+00  0.00000000E+00  0.00000000E+00
  0.00000000E+00  0.00000000E+00  0.00000000E+00
  0.00000000E+00  0.00000000E+00  0.00000000E+00
  0.00000000E+00  0.00000000E+00  0.00000000E+00
  0.00000000E+00  0.00000000E+00  0.00000000E+00
  0.00000000E+00  0.00000000E+00  0.00000000E+00
  0.00000000E+00  0.00000000E+00  0.00000000E+00
  0.00000000E+00  0.00000000E+00  0.00000000E+00
  0.00000000E+00  0.00000000E+00  0.00000000E+00
  0.00000000E+00  0.00000000E+00  0.00000000E+00
  0.00000000E+00  0.00000000E+00  0.00000000E+00
  0.00000000E+00  0.00000000E+00  0.00000000E+00
  0.00000000E+00  0.00000000E+00  0.00000000E+00
  0.00000000E+00  0.00000000E+00  0.00000000E+00
  0.00000000E+00  0.00000000E+00  0.00000000E+00
  0.00000000E+00  0.00000000E+00  0.00000000E+00
  0.00000000E+00  0.00000000E+00  0.00000000E+00
  0.00000000E+00  0.00000000E+00  0.00000000E+00
  0.00000000E+00  0.00000000E+00  0.00000000E+00
  0.00000000E+00  0.00000000E+00  0.00000000E+00
  0.00000000E+00  0.00000000E+00  0.00000000E+00
  0.00000000E+00  0.00000000E+00  0.00000000E+00
  0.00000000E+00  0.00000000E+00  0.00000000E+00
  0.00000000E+00  0.00000000E+00  0.00000000E+00
  0.00000000E+00  0.00000000E+00  0.00000000E+00
  0.00000000E+00  0.00000000E+00  0.00000000E+00
  0.00000000E+00  0.00000000E+00  0.00000000E+00
