Pt111                                   
   1.00000000000000     
    11.2227001190000006    0.0000000000000000    0.0000000000000000
     5.6113500595000003    9.7191434021000003    0.0000000000000000
     0.0000000000000000    0.0000000000000000   22.0000000000000000
   Pt   H 
    80    17
Direct
  0.7852472525811096  0.8688513791126188  0.3262346769476593
  0.0351957013885333  0.8688594017804220  0.3261648822907236
  0.0349439504668801  0.6192379494997081  0.3262774173069949
  0.7851060377749640  0.8688443066962122  0.0209905320154313
  0.0347813229977253  0.8688690642034756  0.0211832648973295
  0.0348681064959501  0.6190655831171289  0.0212463320809323
  0.6183734178699860  0.2022309364999256  0.1244920147440556
  0.3684010101177032  0.9523703102826764  0.1245295042418269
  0.0350870780866369  0.3692138208442254  0.3264480234981110
  0.0352624719217550  0.3684957326177666  0.0215819066920417
  0.8686684787823821  0.2020814949861680  0.1244328877138785
  0.9514785402949923  0.5358074038826662  0.2248368864440136
  0.2851929258406420  0.1188723165997944  0.3263552937015554
  0.5358126184267471  0.6189583620025400  0.3255458855978823
  0.2847187565178225  0.3686469757562491  0.3258186275577736
  0.2842734186984022  0.1192867356691236  0.0216468839523389
  0.5349627788993448  0.6188795708042429  0.0211186466570080
  0.2849309044840015  0.3689813055005474  0.0213684164642537
  0.6184245812511187  0.9523163647048241  0.1245784872322305
  0.7018094502480570  0.7856097791464025  0.2246804395738613
  0.8684089818799835  0.7024312907517578  0.1245013996227703
  0.6185605941004688  0.4522334603610240  0.1242776133921958
  0.2847563715009538  0.8696940628954886  0.3256812359720944
  0.2850116507062395  0.8689376459144917  0.0210998156810368
  0.6183462775290405  0.7024899500758666  0.1243927375756137
  0.2020220161719873  0.0351868039117785  0.2249153326130934
  0.8690739641977760  0.9520798447691907  0.4319735646296586
  0.1194210566757324  0.4524384652881789  0.4321952986147520
  0.1195691380941333  0.9512218626832835  0.4321066954555095
  0.8680849106729127  0.4523692427279181  0.4324197385527457
  0.3690238147662593  0.9512525859880705  0.4319750726111062
  0.8682081615111302  0.2026243663838574  0.4319961484109900
  0.1186726712095910  0.2022137061151001  0.4320414892473477
  0.6188231845277077  0.9520239212234002  0.4322522585514496
  0.8689366189474803  0.7019919899875283  0.4322670413644505
  0.3689569793219900  0.2026916972618148  0.4319050200204158
  0.3710500646672503  0.6979501658249523  0.4299980087193137
  0.6149067749175670  0.4541692179224134  0.4304128378092622
  0.1210721853820468  0.7010816353072507  0.4323330139640996
  0.6179150934565862  0.2042730332146235  0.4322521660783851
  0.5355860057319990  0.3686468232887610  0.3255032469680050
  0.5350001073163377  0.3689703628717966  0.0212846847047150
  0.5356077607275662  0.1186678889333368  0.3262474807995222
  0.5352490564199142  0.1187761352131622  0.0213964939996241
  0.8686037680744610  0.4521942495895931  0.1244697644623433
  0.1183734049397933  0.4522679927740488  0.1246257033630785
  0.0352885656647978  0.1188401422922772  0.3262986576648634
  0.0352969659918741  0.1191684952874154  0.0214163341084884
  0.1184162485343589  0.9522907546631523  0.1244020225297871
  0.3711439594161203  0.4542213702018162  0.4302693195642188
  0.4518747575913543  0.5356340091671979  0.2242013306406997
  0.6179327246069867  0.7009611383442010  0.4327313682167589
  0.3683987784498823  0.2022728227733225  0.1245787951014568
  0.1184174819558172  0.2022999652283934  0.1252853173632451
  0.9516069156119340  0.7856199340705657  0.2246584265048125
  0.7850927411874878  0.6190150261101570  0.3263696711538129
  0.2849468412774314  0.6190259621849410  0.3254451123154437
  0.7849642338676269  0.6191451382232885  0.0212805485205574
  0.2849429337784659  0.6190580830259121  0.0211713164366396
  0.3681629512841708  0.7026771128679310  0.1243086473903137
  0.3682767810169494  0.4521806210048833  0.1244044658944259
  0.2017719977097450  0.2858873875783463  0.2249898774554948
  0.7861500823034929  0.3686113415701308  0.3258070612070375
  0.7850138958081011  0.3689260070418034  0.0211308169701399
  0.9517710230307862  0.0356625192015969  0.2247187246881339
  0.4521276864808196  0.7853850199804205  0.2245679088918552
  0.7016866134754380  0.5358547355627619  0.2244356216609208
  0.2017415775923352  0.7854544386223574  0.2244855374112355
  0.4518827742450400  0.0355043268952007  0.2248658282084466
  0.1182711643413307  0.7022504157758643  0.1244149029756194
  0.7018687005208053  0.0355285490477387  0.2246672282144822
  0.7853018490409884  0.1188450498344472  0.3261363745934233
  0.5355947988533196  0.8686687698493687  0.3263136651510691
  0.7849963766433087  0.1187994409335154  0.0212954701817202
  0.5352619687890553  0.8688628022361780  0.0213263922887280
  0.2016353706442809  0.5358380162907176  0.2246348391612999
  0.9512828953524460  0.2859803501171417  0.2249310865503633
  0.8683574806183398  0.9521772839566967  0.1244473141609677
  0.7017240347123792  0.2856291751852777  0.2244699272728147
  0.4520918908728915  0.2856312341149842  0.2246544358283690
  0.4733586677942255  0.5564924107201136  0.5691237025380259
  0.5108431483613336  0.5880858192075913  0.5844865437915723
  0.7006281944071152  0.5343323937170474  0.4727745007235808
  0.2056747725263593  0.7833392927558741  0.4723816446966032
  0.4516539529693683  0.7832424864389171  0.4725184738292171
  0.7013403741327917  0.7849464119429906  0.4728800483183929
  0.9528465602402489  0.7854404604132867  0.4725114819858904
  0.2063283462526721  0.5337918999272382  0.4723632714846461
  0.9519687300380862  0.5351505118933935  0.4730526488439477
  0.2023497579641834  0.2856257052016543  0.4726131596788830
  0.4506154191997903  0.2890373694706836  0.4721543697916389
  0.7003951368871900  0.2885920441587738  0.4724946728339752
  0.9516207407263135  0.2865495485106183  0.4730126585718107
  0.2022794887559770  0.0352496205958897  0.4726827736773262
  0.4521740922870079  0.0356526748649368  0.4725682577373425
  0.7016892608599515  0.0361054037069519  0.4722659090377047
  0.9523575887355948  0.0350233912485469  0.4725967093882812
 
  0.00000000E+00  0.00000000E+00  0.00000000E+00
  0.00000000E+00  0.00000000E+00  0.00000000E+00
  0.00000000E+00  0.00000000E+00  0.00000000E+00
  0.00000000E+00  0.00000000E+00  0.00000000E+00
  0.00000000E+00  0.00000000E+00  0.00000000E+00
  0.00000000E+00  0.00000000E+00  0.00000000E+00
  0.00000000E+00  0.00000000E+00  0.00000000E+00
  0.00000000E+00  0.00000000E+00  0.00000000E+00
  0.00000000E+00  0.00000000E+00  0.00000000E+00
  0.00000000E+00  0.00000000E+00  0.00000000E+00
  0.00000000E+00  0.00000000E+00  0.00000000E+00
  0.00000000E+00  0.00000000E+00  0.00000000E+00
  0.00000000E+00  0.00000000E+00  0.00000000E+00
  0.00000000E+00  0.00000000E+00  0.00000000E+00
  0.00000000E+00  0.00000000E+00  0.00000000E+00
  0.00000000E+00  0.00000000E+00  0.00000000E+00
  0.00000000E+00  0.00000000E+00  0.00000000E+00
  0.00000000E+00  0.00000000E+00  0.00000000E+00
  0.00000000E+00  0.00000000E+00  0.00000000E+00
  0.00000000E+00  0.00000000E+00  0.00000000E+00
  0.00000000E+00  0.00000000E+00  0.00000000E+00
  0.00000000E+00  0.00000000E+00  0.00000000E+00
  0.00000000E+00  0.00000000E+00  0.00000000E+00
  0.00000000E+00  0.00000000E+00  0.00000000E+00
  0.00000000E+00  0.00000000E+00  0.00000000E+00
  0.00000000E+00  0.00000000E+00  0.00000000E+00
  0.00000000E+00  0.00000000E+00  0.00000000E+00
  0.00000000E+00  0.00000000E+00  0.00000000E+00
  0.00000000E+00  0.00000000E+00  0.00000000E+00
  0.00000000E+00  0.00000000E+00  0.00000000E+00
  0.00000000E+00  0.00000000E+00  0.00000000E+00
  0.00000000E+00  0.00000000E+00  0.00000000E+00
  0.00000000E+00  0.00000000E+00  0.00000000E+00
  0.00000000E+00  0.00000000E+00  0.00000000E+00
  0.00000000E+00  0.00000000E+00  0.00000000E+00
  0.00000000E+00  0.00000000E+00  0.00000000E+00
  0.00000000E+00  0.00000000E+00  0.00000000E+00
  0.00000000E+00  0.00000000E+00  0.00000000E+00
  0.00000000E+00  0.00000000E+00  0.00000000E+00
  0.00000000E+00  0.00000000E+00  0.00000000E+00
  0.00000000E+00  0.00000000E+00  0.00000000E+00
  0.00000000E+00  0.00000000E+00  0.00000000E+00
  0.00000000E+00  0.00000000E+00  0.00000000E+00
  0.00000000E+00  0.00000000E+00  0.00000000E+00
  0.00000000E+00  0.00000000E+00  0.00000000E+00
  0.00000000E+00  0.00000000E+00  0.00000000E+00
  0.00000000E+00  0.00000000E+00  0.00000000E+00
  0.00000000E+00  0.00000000E+00  0.00000000E+00
  0.00000000E+00  0.00000000E+00  0.00000000E+00
  0.00000000E+00  0.00000000E+00  0.00000000E+00
  0.00000000E+00  0.00000000E+00  0.00000000E+00
  0.00000000E+00  0.00000000E+00  0.00000000E+00
  0.00000000E+00  0.00000000E+00  0.00000000E+00
  0.00000000E+00  0.00000000E+00  0.00000000E+00
  0.00000000E+00  0.00000000E+00  0.00000000E+00
  0.00000000E+00  0.00000000E+00  0.00000000E+00
  0.00000000E+00  0.00000000E+00  0.00000000E+00
  0.00000000E+00  0.00000000E+00  0.00000000E+00
  0.00000000E+00  0.00000000E+00  0.00000000E+00
  0.00000000E+00  0.00000000E+00  0.00000000E+00
  0.00000000E+00  0.00000000E+00  0.00000000E+00
  0.00000000E+00  0.00000000E+00  0.00000000E+00
  0.00000000E+00  0.00000000E+00  0.00000000E+00
  0.00000000E+00  0.00000000E+00  0.00000000E+00
  0.00000000E+00  0.00000000E+00  0.00000000E+00
  0.00000000E+00  0.00000000E+00  0.00000000E+00
  0.00000000E+00  0.00000000E+00  0.00000000E+00
  0.00000000E+00  0.00000000E+00  0.00000000E+00
  0.00000000E+00  0.00000000E+00  0.00000000E+00
  0.00000000E+00  0.00000000E+00  0.00000000E+00
  0.00000000E+00  0.00000000E+00  0.00000000E+00
  0.00000000E+00  0.00000000E+00  0.00000000E+00
  0.00000000E+00  0.00000000E+00  0.00000000E+00
  0.00000000E+00  0.00000000E+00  0.00000000E+00
  0.00000000E+00  0.00000000E+00  0.00000000E+00
  0.00000000E+00  0.00000000E+00  0.00000000E+00
  0.00000000E+00  0.00000000E+00  0.00000000E+00
  0.00000000E+00  0.00000000E+00  0.00000000E+00
  0.00000000E+00  0.00000000E+00  0.00000000E+00
  0.00000000E+00  0.00000000E+00  0.00000000E+00
  0.00000000E+00  0.00000000E+00  0.00000000E+00
  0.00000000E+00  0.00000000E+00  0.00000000E+00
  0.00000000E+00  0.00000000E+00  0.00000000E+00
  0.00000000E+00  0.00000000E+00  0.00000000E+00
  0.00000000E+00  0.00000000E+00  0.00000000E+00
  0.00000000E+00  0.00000000E+00  0.00000000E+00
  0.00000000E+00  0.00000000E+00  0.00000000E+00
  0.00000000E+00  0.00000000E+00  0.00000000E+00
  0.00000000E+00  0.00000000E+00  0.00000000E+00
  0.00000000E+00  0.00000000E+00  0.00000000E+00
  0.00000000E+00  0.00000000E+00  0.00000000E+00
  0.00000000E+00  0.00000000E+00  0.00000000E+00
  0.00000000E+00  0.00000000E+00  0.00000000E+00
  0.00000000E+00  0.00000000E+00  0.00000000E+00
  0.00000000E+00  0.00000000E+00  0.00000000E+00
  0.00000000E+00  0.00000000E+00  0.00000000E+00
  0.00000000E+00  0.00000000E+00  0.00000000E+00
