Pt   H                                  
   1.00000000000000     
    11.2227001190000006    0.0000000000000000    0.0000000000000000
     5.6113500595000003    9.7191434021000003    0.0000000000000000
     0.0000000000000000    0.0000000000000000   22.0000000000000000
   Pt   H 
    80    17
Direct
  0.7859864957434514  0.8709384445043760  0.3268245777099527
  0.0360499484634917  0.8709110312771422  0.3264468024726304
  0.0359519889411637  0.6205546802572645  0.3268850065613635
  0.7857026028561479  0.8699996319665739  0.0221998415870003
  0.0359687914876553  0.8696820334262644  0.0219547290591228
  0.0366016615971451  0.6191369718179932  0.0221445086013481
  0.6194244117511005  0.2032335301939058  0.1254319679357302
  0.3690203096322994  0.9533792896912698  0.1250402236159859
  0.0361128291837667  0.3700725037144529  0.3261471351342268
  0.0359612574108274  0.3695423375116936  0.0216122071079621
  0.8693903622200219  0.2030961327832574  0.1251289583608863
  0.9526414561725437  0.5370932942780853  0.2253637173352964
  0.2853771128246166  0.1212864583121002  0.3264337730262828
  0.5363315197259568  0.6207040287538962  0.3270452331698011
  0.2876137422489905  0.3709970871522710  0.3278698346839784
  0.2862844579974295  0.1196268972390625  0.0217597671821464
  0.5356913467509602  0.6192756980973413  0.0220301084139281
  0.2858997452113170  0.3697768284213739  0.0219544112677514
  0.6189896128639214  0.9535202688797763  0.1253459231498534
  0.7027999776027457  0.7868834489793624  0.2253991055453613
  0.8692255706917646  0.7034192439738409  0.1252803170899963
  0.6194732729922392  0.4533740772011378  0.1255521526362080
  0.2857473221409203  0.8709514821777026  0.3260718867649214
  0.2859249371074852  0.8695182903045533  0.0216443899056965
  0.6195710568483928  0.7032379137379302  0.1252305802738433
  0.2024477397419320  0.0368582462365616  0.2252176649067859
  0.8693686449325515  0.9546683863905275  0.4326682079939831
  0.1191018843884530  0.4539290871523181  0.4318902088815852
  0.1190667688159047  0.9547553376683265  0.4324159116399404
  0.8696811532581171  0.4543140202940632  0.4319080251417262
  0.3691683933100423  0.9545334022853512  0.4323102016177169
  0.8687725289969803  0.2047496739643700  0.4327578288336529
  0.1191761467017355  0.2043888344202929  0.4324408612727218
  0.6195701734971895  0.9544547334852127  0.4327073840555995
  0.8693247943121598  0.7047309497494992  0.4328332671972593
  0.3693737848490677  0.2036281585836129  0.4324622284943365
  0.3683501673690913  0.7053956523249660  0.4310741624300753
  0.6126464394031351  0.4599604986059709  0.4364649282585414
  0.1188980523207492  0.7056083273299441  0.4325180589840966
  0.6195199279651089  0.2046163462902853  0.4328702093010088
  0.5349524817695638  0.3718570841790720  0.3286246422401536
  0.5358024669546709  0.3698359637788668  0.0221529193926627
  0.5360692559558730  0.1206358117164450  0.3268891088268177
  0.5358114236519794  0.1201048991446162  0.0218718529736198
  0.8698770050335206  0.4528181984054991  0.1253385803254619
  0.1192473174966646  0.4529978213477810  0.1253077875147705
  0.0353801296795272  0.1213930408319015  0.3266117548302694
  0.0358064769101490  0.1196871397986949  0.0217151054098896
  0.1194796550266956  0.9532843712961180  0.1249632557264335
  0.3695536979019939  0.4576173958570273  0.4376688349065368
  0.4527502883202716  0.5366990188974483  0.2260749814543472
  0.6188365535988595  0.7056545237162737  0.4322818680251301
  0.3695724400041202  0.2031964158184692  0.1251435498933393
  0.1194243305072577  0.2031737856281104  0.1248587742387467
  0.9526408322859794  0.7868194783215362  0.2254272891990745
  0.7863184467801366  0.6206518056354324  0.3268129956867009
  0.2861709392482831  0.6196084287784995  0.3276299217930421
  0.7858032964901553  0.6191852677810984  0.0221905841510600
  0.2864254988738905  0.6193101417268625  0.0220721516060643
  0.3692978236700905  0.7033974364894764  0.1252700055780175
  0.3691778293770770  0.4533738575739678  0.1255510560966802
  0.2030647654396790  0.2871704962000414  0.2252182964597338
  0.7831269521226537  0.3716268308432567  0.3281468793460865
  0.7859112385755880  0.3696566531610856  0.0219822601679438
  0.9525313176902184  0.0371097759289910  0.2252607802809455
  0.4530448282979160  0.7867092970493779  0.2250396646984589
  0.7027727827393597  0.5366414316321207  0.2257662694481753
  0.2028144015605108  0.7862886979651155  0.2251762368180945
  0.4524416290181248  0.0372635570950790  0.2253268900115818
  0.1190290583915889  0.7033177845219889  0.1252981166073377
  0.7026388166630946  0.0370392336915301  0.2254307310367334
  0.7859588224743270  0.1209001742164754  0.3268273046899632
  0.5356542742645511  0.8712073427369392  0.3264543768649930
  0.7854974559350680  0.1201645204398621  0.0219202474594434
  0.5357484169573981  0.8697214965445237  0.0219631744699126
  0.2031020986134433  0.5366977362729567  0.2258770114862043
  0.9520302116403370  0.2870547616017731  0.2252979269105297
  0.8693465577010554  0.9534992848199677  0.1253035227265573
  0.7021776477740165  0.2875296919862645  0.2258932079373711
  0.4527845117304595  0.2873495870558350  0.2258392540365461
  0.3721140782673448  0.4748449672864194  0.5079336935310483
  0.5503267447850047  0.5072303676106960  0.5014513343516185
  0.7106246757792748  0.5376751612567092  0.4727150788118002
  0.2040122396900179  0.7880024199545876  0.4732357819064751
  0.4510850008085543  0.7891652771985802  0.4728010529708528
  0.7031610363626033  0.7879657377229980  0.4736146722355176
  0.9523269585792795  0.7879430029419726  0.4736304231730425
  0.1900379457210306  0.5418208025044772  0.4729514899240637
  0.9526038723375831  0.5379481103303275  0.4732210813575063
  0.2030281847999681  0.2873218225063393  0.4733938368623343
  0.4552250911575603  0.2787327977197516  0.4730715006720102
  0.7048969105507144  0.2873948765218307  0.4732526679191742
  0.9523946649290341  0.2875621593623656  0.4733769999548441
  0.2024871606636989  0.0378842526428906  0.4733340285131063
  0.4534438781388817  0.0368454364572334  0.4734870155741687
  0.7033008523186950  0.0371815744407829  0.4735973399452785
  0.9524900785698416  0.0379295279355255  0.4735881650616244
 
             NaN             NaN             NaN
             NaN             NaN             NaN
             NaN             NaN             NaN
             NaN             NaN             NaN
             NaN             NaN             NaN
             NaN             NaN             NaN
             NaN             NaN             NaN
             NaN             NaN             NaN
             NaN             NaN             NaN
             NaN             NaN             NaN
             NaN             NaN             NaN
             NaN             NaN             NaN
             NaN             NaN             NaN
             NaN             NaN             NaN
             NaN             NaN             NaN
             NaN             NaN             NaN
             NaN             NaN             NaN
             NaN             NaN             NaN
             NaN             NaN             NaN
             NaN             NaN             NaN
             NaN             NaN             NaN
             NaN             NaN             NaN
             NaN             NaN             NaN
             NaN             NaN             NaN
             NaN             NaN             NaN
             NaN             NaN             NaN
             NaN             NaN             NaN
             NaN             NaN             NaN
             NaN             NaN             NaN
             NaN             NaN             NaN
             NaN             NaN             NaN
             NaN             NaN             NaN
             NaN             NaN             NaN
             NaN             NaN             NaN
             NaN             NaN             NaN
             NaN             NaN             NaN
             NaN             NaN             NaN
             NaN             NaN             NaN
             NaN             NaN             NaN
             NaN             NaN             NaN
             NaN             NaN             NaN
             NaN             NaN             NaN
             NaN             NaN             NaN
             NaN             NaN             NaN
             NaN             NaN             NaN
             NaN             NaN             NaN
             NaN             NaN             NaN
             NaN             NaN             NaN
             NaN             NaN             NaN
             NaN             NaN             NaN
             NaN             NaN             NaN
             NaN             NaN             NaN
             NaN             NaN             NaN
             NaN             NaN             NaN
             NaN             NaN             NaN
             NaN             NaN             NaN
             NaN             NaN             NaN
             NaN             NaN             NaN
             NaN             NaN             NaN
             NaN             NaN             NaN
             NaN             NaN             NaN
             NaN             NaN             NaN
             NaN             NaN             NaN
             NaN             NaN             NaN
             NaN             NaN             NaN
             NaN             NaN             NaN
             NaN             NaN             NaN
             NaN             NaN             NaN
             NaN             NaN             NaN
             NaN             NaN             NaN
             NaN             NaN             NaN
             NaN             NaN             NaN
             NaN             NaN             NaN
             NaN             NaN             NaN
             NaN             NaN             NaN
             NaN             NaN             NaN
             NaN             NaN             NaN
             NaN             NaN             NaN
             NaN             NaN             NaN
             NaN             NaN             NaN
             NaN             NaN             NaN
             NaN             NaN             NaN
             NaN             NaN             NaN
             NaN             NaN             NaN
             NaN             NaN             NaN
             NaN             NaN             NaN
             NaN             NaN             NaN
             NaN             NaN             NaN
             NaN             NaN             NaN
             NaN             NaN             NaN
             NaN             NaN             NaN
             NaN             NaN             NaN
             NaN             NaN             NaN
             NaN             NaN             NaN
             NaN             NaN             NaN
             NaN             NaN             NaN
             NaN             NaN             NaN
