10.66                                   
   1.00000000000000     
    10.6599998474000000    0.0000000000000000    0.0000000000000000
     5.3299999237000000    9.2318306721999992    0.0000000000000000
     0.0000000000000000    0.0000000000000000   22.0000000000000000
   Pt   Fe   Co   Cu   Ni
    32    13    10    13    12
Direct
  0.7861256863593624  0.8796297652269445  0.3167711217936073
  0.0419191268303933  0.8827772534331189  0.3150878585746781
  0.2791720194454825  0.3810259387994535  0.3188136104072399
  0.8736500234006215  0.9626237068818213  0.4223762005315805
  0.1209987438015929  0.4626705227281533  0.4259856968120914
  0.1240329440031118  0.9619970409823040  0.4203102918614832
  0.8735620784276108  0.4598061817755763  0.4247867207699869
  0.3736875873976686  0.9603417498339297  0.4191220424583406
  0.8733554278564952  0.2112056410397400  0.4191307431326408
  0.1249211592890944  0.2112534916256905  0.4208192578201846
  0.6239027556515069  0.9608506754518942  0.4223171163054360
  0.8732601808043370  0.7112313179646534  0.4249907438879177
  0.3739873731427750  0.2094866833562889  0.4231572723814025
  0.3748886047805797  0.7125438532361841  0.4225939048187044
  0.6248635115630776  0.4619149483601319  0.4213876820525542
  0.1234776873199905  0.7113165659816119  0.4248574803258265
  0.6242263017203413  0.2107028614342852  0.4204953695943416
  0.5482572636473790  0.3758542160536607  0.3165819382927140
  0.5336253777727507  0.1249970985307698  0.3141779320041209
  0.5486022592085504  0.1220783678685962  0.0417194611415965
  0.1203770114097509  0.4596758926671001  0.1283201030976784
  0.0431061669061990  0.1369007315024859  0.3136831220459158
  0.0418426388121560  0.1305148925810613  0.0343023685498096
  0.1308766909643850  0.9576410281415093  0.1324593496147415
  0.3737878599871536  0.4615231973788809  0.4248553067105192
  0.4546715961512646  0.5460618645742343  0.2188397207567263
  0.6220727489606688  0.7116725752056325  0.4225507191162592
  0.9554934287875554  0.7893554538270422  0.2208855773829654
  0.7944539130611119  0.6230630893647202  0.3187970170505423
  0.2911907996997627  0.6313609826284861  0.3178578487432588
  0.2023472006771243  0.2797412323973774  0.2253253999165423
  0.7056559987260229  0.5500194634942730  0.2211893440377537
  0.0403004952812651  0.6315238644414833  0.3245800745127312
  0.7960105560636634  0.8618201000152084  0.0435832611474751
  0.0565437832190341  0.8651109997139983  0.0392200758352672
  0.0435481061827119  0.6317236463198554  0.0389093084544712
  0.6276815134187146  0.2235163201369161  0.1293691217293258
  0.3825164796158802  0.9540841432396263  0.1307328652720940
  0.0356262068150812  0.3838485749509033  0.3235828069027633
  0.0278953743103045  0.3811135671640926  0.0392268803141960
  0.8723854835022706  0.2152433571613628  0.1290949134479007
  0.9546093273791882  0.5451190678076969  0.2239290030784531
  0.2965973711227790  0.1157831908740192  0.3206542093390752
  0.5399736326311313  0.6296830173231811  0.3217857033536404
  0.2959387413118151  0.1156684851677809  0.0410976887415586
  0.5491575652154026  0.6253534475458480  0.0451299578275552
  0.2944436057250925  0.3818825695141896  0.0395469972655746
  0.6257779840718243  0.9479981115408691  0.1328387403237770
  0.7066556847877550  0.7938172325064485  0.2205763909520186
  0.8652306351081123  0.7044347069476586  0.1296516185611907
  0.6267408805073202  0.4597839886320259  0.1279108792224122
  0.2969519208394686  0.8754488245023921  0.3179710943145793
  0.3065683121049858  0.8685951938635981  0.0415361194209041
  0.6265607890765850  0.7150544964896923  0.1290314723709685
  0.2244809995754267  0.0278325020599013  0.2274696501947204
  0.5442540274229231  0.3813987627241318  0.0359396309855455
  0.3788308164975547  0.2041435759400301  0.1334105030950781
  0.1370202990342619  0.7046968196457115  0.1327566403370994
  0.7045230903535824  0.0505786573465912  0.2203019766693188
  0.7924309874270676  0.1298657318717318  0.3162853080297694
  0.5379990483137220  0.8730732941909736  0.3166943773583952
  0.7969090446324145  0.1230080278114372  0.0358981495894994
  0.5463967724819980  0.8699164031409694  0.0370350138550677
  0.2074726852177733  0.5428352345222791  0.2238711432217571
  0.9510909908093694  0.2979328413997067  0.2216904374046251
  0.8720363512210980  0.9641267701864251  0.1296642823056899
  0.7148815636296106  0.2904304141625147  0.2237259403126757
  0.4575224779053428  0.2924903229831983  0.2208079187402987
  0.8754952507770142  0.4570332552358778  0.1289402077098316
  0.1280802376361905  0.2061871464288174  0.1293457843359107
  0.7920109362167835  0.6217651118885712  0.0414976089785029
  0.2975223793243131  0.6287043760618687  0.0435603156157427
  0.3861497401590626  0.7125257726307268  0.1296682481721163
  0.3823461753098272  0.4514638794533496  0.1268844718154156
  0.7925933792386317  0.3800350857258081  0.3200923693657529
  0.7914206266299288  0.3768939204327140  0.0409385091401191
  0.9554415673324499  0.0534531705332597  0.2215516886094875
  0.4574720570230824  0.7969839228046993  0.2249815099788961
  0.2141434345268394  0.7976255665879251  0.2247769468144938
  0.4619681314474917  0.0292740430443033  0.2223939279871203
 
  0.00000000E+00  0.00000000E+00  0.00000000E+00
  0.00000000E+00  0.00000000E+00  0.00000000E+00
  0.00000000E+00  0.00000000E+00  0.00000000E+00
  0.00000000E+00  0.00000000E+00  0.00000000E+00
  0.00000000E+00  0.00000000E+00  0.00000000E+00
  0.00000000E+00  0.00000000E+00  0.00000000E+00
  0.00000000E+00  0.00000000E+00  0.00000000E+00
  0.00000000E+00  0.00000000E+00  0.00000000E+00
  0.00000000E+00  0.00000000E+00  0.00000000E+00
  0.00000000E+00  0.00000000E+00  0.00000000E+00
  0.00000000E+00  0.00000000E+00  0.00000000E+00
  0.00000000E+00  0.00000000E+00  0.00000000E+00
  0.00000000E+00  0.00000000E+00  0.00000000E+00
  0.00000000E+00  0.00000000E+00  0.00000000E+00
  0.00000000E+00  0.00000000E+00  0.00000000E+00
  0.00000000E+00  0.00000000E+00  0.00000000E+00
  0.00000000E+00  0.00000000E+00  0.00000000E+00
  0.00000000E+00  0.00000000E+00  0.00000000E+00
  0.00000000E+00  0.00000000E+00  0.00000000E+00
  0.00000000E+00  0.00000000E+00  0.00000000E+00
  0.00000000E+00  0.00000000E+00  0.00000000E+00
  0.00000000E+00  0.00000000E+00  0.00000000E+00
  0.00000000E+00  0.00000000E+00  0.00000000E+00
  0.00000000E+00  0.00000000E+00  0.00000000E+00
  0.00000000E+00  0.00000000E+00  0.00000000E+00
  0.00000000E+00  0.00000000E+00  0.00000000E+00
  0.00000000E+00  0.00000000E+00  0.00000000E+00
  0.00000000E+00  0.00000000E+00  0.00000000E+00
  0.00000000E+00  0.00000000E+00  0.00000000E+00
  0.00000000E+00  0.00000000E+00  0.00000000E+00
  0.00000000E+00  0.00000000E+00  0.00000000E+00
  0.00000000E+00  0.00000000E+00  0.00000000E+00
  0.00000000E+00  0.00000000E+00  0.00000000E+00
  0.00000000E+00  0.00000000E+00  0.00000000E+00
  0.00000000E+00  0.00000000E+00  0.00000000E+00
  0.00000000E+00  0.00000000E+00  0.00000000E+00
  0.00000000E+00  0.00000000E+00  0.00000000E+00
  0.00000000E+00  0.00000000E+00  0.00000000E+00
  0.00000000E+00  0.00000000E+00  0.00000000E+00
  0.00000000E+00  0.00000000E+00  0.00000000E+00
  0.00000000E+00  0.00000000E+00  0.00000000E+00
  0.00000000E+00  0.00000000E+00  0.00000000E+00
  0.00000000E+00  0.00000000E+00  0.00000000E+00
  0.00000000E+00  0.00000000E+00  0.00000000E+00
  0.00000000E+00  0.00000000E+00  0.00000000E+00
  0.00000000E+00  0.00000000E+00  0.00000000E+00
  0.00000000E+00  0.00000000E+00  0.00000000E+00
  0.00000000E+00  0.00000000E+00  0.00000000E+00
  0.00000000E+00  0.00000000E+00  0.00000000E+00
  0.00000000E+00  0.00000000E+00  0.00000000E+00
  0.00000000E+00  0.00000000E+00  0.00000000E+00
  0.00000000E+00  0.00000000E+00  0.00000000E+00
  0.00000000E+00  0.00000000E+00  0.00000000E+00
  0.00000000E+00  0.00000000E+00  0.00000000E+00
  0.00000000E+00  0.00000000E+00  0.00000000E+00
  0.00000000E+00  0.00000000E+00  0.00000000E+00
  0.00000000E+00  0.00000000E+00  0.00000000E+00
  0.00000000E+00  0.00000000E+00  0.00000000E+00
  0.00000000E+00  0.00000000E+00  0.00000000E+00
  0.00000000E+00  0.00000000E+00  0.00000000E+00
  0.00000000E+00  0.00000000E+00  0.00000000E+00
  0.00000000E+00  0.00000000E+00  0.00000000E+00
  0.00000000E+00  0.00000000E+00  0.00000000E+00
  0.00000000E+00  0.00000000E+00  0.00000000E+00
  0.00000000E+00  0.00000000E+00  0.00000000E+00
  0.00000000E+00  0.00000000E+00  0.00000000E+00
  0.00000000E+00  0.00000000E+00  0.00000000E+00
  0.00000000E+00  0.00000000E+00  0.00000000E+00
  0.00000000E+00  0.00000000E+00  0.00000000E+00
  0.00000000E+00  0.00000000E+00  0.00000000E+00
  0.00000000E+00  0.00000000E+00  0.00000000E+00
  0.00000000E+00  0.00000000E+00  0.00000000E+00
  0.00000000E+00  0.00000000E+00  0.00000000E+00
  0.00000000E+00  0.00000000E+00  0.00000000E+00
  0.00000000E+00  0.00000000E+00  0.00000000E+00
  0.00000000E+00  0.00000000E+00  0.00000000E+00
  0.00000000E+00  0.00000000E+00  0.00000000E+00
  0.00000000E+00  0.00000000E+00  0.00000000E+00
  0.00000000E+00  0.00000000E+00  0.00000000E+00
  0.00000000E+00  0.00000000E+00  0.00000000E+00
