10.76                                   
   1.00000000000000     
    10.7600002288999992    0.0000000000000000    0.0000000000000000
     5.3800001143999996    9.3184335428999994    0.0000000000000000
     0.0000000000000000    0.0000000000000000   22.0000000000000000
   Pt   Fe   Co   Cu   Ni   H 
    32    13    10    13    12     1
Selective dynamics
Direct
  0.7856979512333740  0.8797576822689720  0.3154878582204527   T   T   T
  0.0426430918475976  0.8819026361615288  0.3135941084269311   T   T   T
  0.2799910181614019  0.3804325032674079  0.3180110008450027   T   T   T
  0.8747448390829815  0.9623715691381359  0.4193206440981180   T   T   T
  0.1197878561931201  0.4638864523408591  0.4239326067507267   T   T   T
  0.1249843435084311  0.9611107851146331  0.4181489710708272   T   T   T
  0.8758018843746416  0.4586943044570415  0.4229494008329151   T   T   T
  0.3739154110839292  0.9606715265301768  0.4179342522391454   T   T   T
  0.8760156633882811  0.2100442012398771  0.4172787953630328   T   T   T
  0.1258683859119593  0.2118744342819690  0.4192822579464633   T   T   T
  0.6243753599040499  0.9599136572445393  0.4205853204469427   T   T   T
  0.8734795699462805  0.7111346485055116  0.4228970783092095   T   T   T
  0.3740680000113570  0.2076081620931759  0.4210312393970372   T   T   T
  0.3749883832772986  0.7149427035049141  0.4200049788766914   T   T   T
  0.6287619113399761  0.4634079305337029  0.4217733608547047   T   T   T
  0.1234364223088745  0.7111177746371996  0.4223557951869765   T   T   T
  0.6270827538032283  0.2065827463712097  0.4213741024339051   T   T   T
  0.5483471991731506  0.3765543925016467  0.3171638957025174   T   T   T
  0.5345239167036931  0.1259099196500144  0.3139016909546872   T   T   T
  0.5479267310515752  0.1232892167026662  0.0438354440136379   F   F   F
  0.1193453373624038  0.4597245861096511  0.1287449583545452   F   F   F
  0.0445498950806372  0.1360566325543831  0.3131074860392337   T   T   T
  0.0408040871490059  0.1311498911028011  0.0353636510090922   F   F   F
  0.1313044783091684  0.9579990200822763  0.1330364317545474   F   F   F
  0.3700461184231685  0.4635629007563276  0.4248335236810188   T   T   T
  0.4554859481779090  0.5468658091233323  0.2192060685090880   F   F   F
  0.6219123415004536  0.7121849002193477  0.4203523422234868   T   T   T
  0.9556912742960080  0.7873506540045199  0.2205031624227303   F   F   F
  0.7956154636781410  0.6228981785152047  0.3180520942101892   T   T   T
  0.2912514286966582  0.6304515724174329  0.3172015328983476   T   T   T
  0.2012375110298592  0.2788553671104808  0.2253960259409098   F   F   F
  0.7053132991228281  0.5507170639758527  0.2210761596681792   F   F   F
  0.0406862856656014  0.6311402247074753  0.3231357996507574   T   T   T
  0.7954783082485406  0.8611238289308787  0.0457152006545485   F   F   F
  0.0575212550804594  0.8641789042575354  0.0409535455772740   F   F   F
  0.0456084242478454  0.6318179268537989  0.0403526911181800   F   F   F
  0.6278305598418541  0.2253448316750593  0.1304824814136367   F   F   F
  0.3825655044668324  0.9535177246255060  0.1314263805090903   F   F   F
  0.0359040407527338  0.3836336649583255  0.3225868834467417   T   T   T
  0.0260615386681806  0.3810885896595479  0.0403102601590888   F   F   F
  0.8723711723195962  0.2151287605659249  0.1298020397499968   F   F   F
  0.9547335530667951  0.5442973253336660  0.2239073203045479   F   F   F
  0.2977441619535937  0.1157336948769380  0.3200543718239682   T   T   T
  0.5410362078987805  0.6282576284384581  0.3210919010786698   T   T   T
  0.2949751593484535  0.1163516447918553  0.0426677318909086   F   F   F
  0.5497857468387153  0.6253450526821567  0.0461306137818198   F   F   F
  0.2969566052389681  0.3823652154298856  0.0422564458500005   F   F   F
  0.6249458186425088  0.9474812472239122  0.1336582942090914   F   F   F
  0.7073783254117956  0.7925741239553403  0.2204095770727292   F   F   F
  0.8643637461216613  0.7029606029106716  0.1299859167545421   F   F   F
  0.6269787784890184  0.4592523668595234  0.1284489634045443   F   F   F
  0.2976770934036925  0.8746115106542829  0.3174467514371945   T   T   T
  0.3071779756071464  0.8685022953526769  0.0426992808000008   F   F   F
  0.6259846636109003  0.7158394751425234  0.1294188900181794   F   F   F
  0.2263697746008830  0.0265762640963061  0.2277658617318181   F   F   F
  0.5422786776051893  0.3823649547208277  0.0372911256318176   F   F   F
  0.3770236217526488  0.2055569132388655  0.1342270989136338   F   F   F
  0.1386540919502792  0.7046558401978444  0.1337982367227255   F   F   F
  0.7044384733601134  0.0510072048817847  0.2203902870818197   F   F   F
  0.7927256940502501  0.1298618796708730  0.3158827142546368   T   T   T
  0.5386641149227126  0.8733037990912329  0.3163969702991913   T   T   T
  0.7964640097093465  0.1229298524077365  0.0375270880681811   F   F   F
  0.5453781290973083  0.8713405885677545  0.0381163191590943   F   F   F
  0.2079968609143066  0.5423612536627189  0.2238731068772708   F   F   F
  0.9502517692622092  0.2988565663079612  0.2218493459999991   F   F   F
  0.8721394008204939  0.9645445904637313  0.1305576548363661   F   F   F
  0.7160608076910577  0.2907946614444299  0.2240872102636331   F   F   F
  0.4572063303243468  0.2931434561747039  0.2211508691681843   F   F   F
  0.8746667074118193  0.4568803762026974  0.1294246137636392   F   F   F
  0.1274815274220984  0.2065411393920868  0.1296872253999979   F   F   F
  0.7912047277638123  0.6211097396096008  0.0422462150454521   F   F   F
  0.2978218131850454  0.6268259632060662  0.0450505997681816   F   F   F
  0.3863157406502253  0.7128529518634892  0.1302027574090943   F   F   F
  0.3822704936785541  0.4518886614165325  0.1282433244909100   F   F   F
  0.7927692812303113  0.3806930706953752  0.3196252243894857   T   T   T
  0.7914440065378301  0.3765222275125097  0.0417798686954569   F   F   F
  0.9554123354930013  0.0542452715977291  0.2215384381590937   F   F   F
  0.4587321815542893  0.7962888195681401  0.2253854676772704   F   F   F
  0.2158448670038950  0.7978226494907545  0.2248111195227267   F   F   F
  0.4616344529792542  0.0286802995342086  0.2228021754681819   F   F   F
  0.5405162055877003  0.3742242355021267  0.4646683120480876   T   T   T
 
  0.00000000E+00  0.00000000E+00  0.00000000E+00
  0.00000000E+00  0.00000000E+00  0.00000000E+00
  0.00000000E+00  0.00000000E+00  0.00000000E+00
  0.00000000E+00  0.00000000E+00  0.00000000E+00
  0.00000000E+00  0.00000000E+00  0.00000000E+00
  0.00000000E+00  0.00000000E+00  0.00000000E+00
  0.00000000E+00  0.00000000E+00  0.00000000E+00
  0.00000000E+00  0.00000000E+00  0.00000000E+00
  0.00000000E+00  0.00000000E+00  0.00000000E+00
  0.00000000E+00  0.00000000E+00  0.00000000E+00
  0.00000000E+00  0.00000000E+00  0.00000000E+00
  0.00000000E+00  0.00000000E+00  0.00000000E+00
  0.00000000E+00  0.00000000E+00  0.00000000E+00
  0.00000000E+00  0.00000000E+00  0.00000000E+00
  0.00000000E+00  0.00000000E+00  0.00000000E+00
  0.00000000E+00  0.00000000E+00  0.00000000E+00
  0.00000000E+00  0.00000000E+00  0.00000000E+00
  0.00000000E+00  0.00000000E+00  0.00000000E+00
  0.00000000E+00  0.00000000E+00  0.00000000E+00
  0.00000000E+00  0.00000000E+00  0.00000000E+00
  0.00000000E+00  0.00000000E+00  0.00000000E+00
  0.00000000E+00  0.00000000E+00  0.00000000E+00
  0.00000000E+00  0.00000000E+00  0.00000000E+00
  0.00000000E+00  0.00000000E+00  0.00000000E+00
  0.00000000E+00  0.00000000E+00  0.00000000E+00
  0.00000000E+00  0.00000000E+00  0.00000000E+00
  0.00000000E+00  0.00000000E+00  0.00000000E+00
  0.00000000E+00  0.00000000E+00  0.00000000E+00
  0.00000000E+00  0.00000000E+00  0.00000000E+00
  0.00000000E+00  0.00000000E+00  0.00000000E+00
  0.00000000E+00  0.00000000E+00  0.00000000E+00
  0.00000000E+00  0.00000000E+00  0.00000000E+00
  0.00000000E+00  0.00000000E+00  0.00000000E+00
  0.00000000E+00  0.00000000E+00  0.00000000E+00
  0.00000000E+00  0.00000000E+00  0.00000000E+00
  0.00000000E+00  0.00000000E+00  0.00000000E+00
  0.00000000E+00  0.00000000E+00  0.00000000E+00
  0.00000000E+00  0.00000000E+00  0.00000000E+00
  0.00000000E+00  0.00000000E+00  0.00000000E+00
  0.00000000E+00  0.00000000E+00  0.00000000E+00
  0.00000000E+00  0.00000000E+00  0.00000000E+00
  0.00000000E+00  0.00000000E+00  0.00000000E+00
  0.00000000E+00  0.00000000E+00  0.00000000E+00
  0.00000000E+00  0.00000000E+00  0.00000000E+00
  0.00000000E+00  0.00000000E+00  0.00000000E+00
  0.00000000E+00  0.00000000E+00  0.00000000E+00
  0.00000000E+00  0.00000000E+00  0.00000000E+00
  0.00000000E+00  0.00000000E+00  0.00000000E+00
  0.00000000E+00  0.00000000E+00  0.00000000E+00
  0.00000000E+00  0.00000000E+00  0.00000000E+00
  0.00000000E+00  0.00000000E+00  0.00000000E+00
  0.00000000E+00  0.00000000E+00  0.00000000E+00
  0.00000000E+00  0.00000000E+00  0.00000000E+00
  0.00000000E+00  0.00000000E+00  0.00000000E+00
  0.00000000E+00  0.00000000E+00  0.00000000E+00
  0.00000000E+00  0.00000000E+00  0.00000000E+00
  0.00000000E+00  0.00000000E+00  0.00000000E+00
  0.00000000E+00  0.00000000E+00  0.00000000E+00
  0.00000000E+00  0.00000000E+00  0.00000000E+00
  0.00000000E+00  0.00000000E+00  0.00000000E+00
  0.00000000E+00  0.00000000E+00  0.00000000E+00
  0.00000000E+00  0.00000000E+00  0.00000000E+00
  0.00000000E+00  0.00000000E+00  0.00000000E+00
  0.00000000E+00  0.00000000E+00  0.00000000E+00
  0.00000000E+00  0.00000000E+00  0.00000000E+00
  0.00000000E+00  0.00000000E+00  0.00000000E+00
  0.00000000E+00  0.00000000E+00  0.00000000E+00
  0.00000000E+00  0.00000000E+00  0.00000000E+00
  0.00000000E+00  0.00000000E+00  0.00000000E+00
  0.00000000E+00  0.00000000E+00  0.00000000E+00
  0.00000000E+00  0.00000000E+00  0.00000000E+00
  0.00000000E+00  0.00000000E+00  0.00000000E+00
  0.00000000E+00  0.00000000E+00  0.00000000E+00
  0.00000000E+00  0.00000000E+00  0.00000000E+00
  0.00000000E+00  0.00000000E+00  0.00000000E+00
  0.00000000E+00  0.00000000E+00  0.00000000E+00
  0.00000000E+00  0.00000000E+00  0.00000000E+00
  0.00000000E+00  0.00000000E+00  0.00000000E+00
  0.00000000E+00  0.00000000E+00  0.00000000E+00
  0.00000000E+00  0.00000000E+00  0.00000000E+00
  0.00000000E+00  0.00000000E+00  0.00000000E+00
