Pt111                                   
   1.00000000000000     
    11.2227001190000006    0.0000000000000000    0.0000000000000000
     5.6113500595000003    9.7191434021000003    0.0000000000000000
     0.0000000000000000    0.0000000000000000   22.0000000000000000
   Pt   H 
    80     2
Direct
  0.7847124202901098  0.8681585397004615  0.3266406943122750
  0.0350995789584373  0.8677823913391983  0.3266153125152551
  0.0348504962253228  0.6180425701165013  0.3263931985464431
  0.7848689241831709  0.8683204654326352  0.0228511958248761
  0.0350372476055552  0.8683030660810493  0.0228515067182727
  0.0348670947068403  0.6187044546823917  0.0228436821523118
  0.6182260097087882  0.2014425834970730  0.1260025404443277
  0.3683060199456640  0.9510368723320550  0.1260155234459824
  0.0345374763888026  0.3678867972897833  0.3264179673142482
  0.0347106238836523  0.3687102825656778  0.0230363639962768
  0.8679232048536530  0.2016171027848392  0.1259890644595589
  0.9516949193485029  0.5345569496295708  0.2260479936957086
  0.2845881397050625  0.1176848357044229  0.3264478567937872
  0.5346661264792887  0.6179065595566131  0.3284746975988648
  0.2845791855383593  0.3680570513644049  0.3264335304585273
  0.2853300823862772  0.1180501656027459  0.0229806314913286
  0.5350575694578606  0.6182730248514109  0.0232345632424193
  0.2851500670157263  0.3686191329357372  0.0230355193305485
  0.6182039516140476  0.9515958880716283  0.1258773614970805
  0.7012747798881795  0.7846964837496382  0.2263219759774263
  0.8682261954777342  0.7016346591100817  0.1259064830905804
  0.6178323510272037  0.4516909830578424  0.1263190356567267
  0.2856451266105157  0.8664326987088845  0.3275594170763870
  0.2850376519544900  0.8681201391421849  0.0230295958727197
  0.6180032066497888  0.7015623634137439  0.1260622288415956
  0.2013632736466835  0.0347468766684960  0.2262049103985725
  0.8685199175990890  0.9517017032383720  0.4296993132539345
  0.1165427161146518  0.4510275434087149  0.4293910340788383
  0.1169303876171139  0.9521037875540648  0.4298970728332692
  0.8709384175853979  0.4497352883930123  0.4294385785980662
  0.3665842677693043  0.9541606622322606  0.4294678614674853
  0.8688887580042970  0.2002215239535330  0.4299203197499109
  0.1173628739577642  0.2004938953555596  0.4294403414877587
  0.6179576697609029  0.9531310781100377  0.4296208889839360
  0.8697420240859812  0.7014264276774818  0.4296222230547413
  0.3677229892207992  0.1999341338581704  0.4294071276306557
  0.3635782887120374  0.7059255013500045  0.4344584932285885
  0.6233843721950811  0.4459281046865987  0.4336475392598630
  0.1146849112506670  0.7029670727182997  0.4297208814626329
  0.6196740989264525  0.1981525718566556  0.4297451532382907
  0.5343129999951818  0.3689508172949130  0.3280619460170224
  0.5351807922250469  0.3683558436578666  0.0231054162143418
  0.5346248599645227  0.1181937744095557  0.3263890688021251
  0.5353172484502317  0.1182511146459930  0.0228333161231052
  0.8676438424273750  0.4517088787204476  0.1260010363906094
  0.1183254434862466  0.4517555475658732  0.1257655465931978
  0.0345320054463543  0.1176343144130646  0.3264526025040571
  0.0348129549820094  0.1180477148762906  0.0229249304196761
  0.1182031046545956  0.9512516214934283  0.1260044195145144
  0.3636296765526039  0.4460936695028560  0.4315558554015358
  0.4513011832012795  0.5348207789547991  0.2271818241638851
  0.6231049724144657  0.7056993962138344  0.4311068783437974
  0.3683778620136591  0.2016917379075726  0.1257402168420243
  0.1180142447473252  0.2014078919798390  0.1253406863181407
  0.9514557681193123  0.7848253723550467  0.2262815915320932
  0.7846452235126160  0.6179559001493420  0.3266161649805283
  0.2856491968492736  0.6176301625825965  0.3282021445305807
  0.7849034267716242  0.6184980479384283  0.0228894878387399
  0.2849936824196278  0.6185147034902887  0.0231425258677108
  0.3682832218027129  0.7012819212015478  0.1263437021818835
  0.3685169603625380  0.4517902141223525  0.1262381287295235
  0.2010136367041526  0.2842996118968880  0.2259094325657930
  0.7834605456511199  0.3688667054846509  0.3273426539372739
  0.7847159432433707  0.3684429993130394  0.0230216947926143
  0.9513724951449921  0.0347966946938302  0.2263333876698607
  0.4512468625833299  0.7845198635353707  0.2267049523364266
  0.7010722729138209  0.5347568633454302  0.2265776758989076
  0.2019820113663774  0.7844430533170117  0.2266803947822330
  0.4511466506136118  0.0350584812424513  0.2260345782081110
  0.1180595868492894  0.7016541489641662  0.1260245211169624
  0.7013755990225884  0.0348317943306904  0.2262773970916397
  0.7844298909315122  0.1184184883946303  0.3266093659774345
  0.5346066386148991  0.8680307921168851  0.3266465370029387
  0.7849724500227613  0.1183825794248015  0.0228398734722087
  0.5350582764710409  0.8682625387931133  0.0228754368036410
  0.2016983502015939  0.5348258315244016  0.2263903216317110
  0.9513022212999493  0.2847710510082546  0.2262402836278197
  0.8682326581170389  0.9516392878268216  0.1258912478470267
  0.7010230978606219  0.2853245246499111  0.2266001019734881
  0.4513643936254728  0.2851211515764211  0.2264117793442692
  0.4347965552488089  0.5312142919825283  0.4706744855559726
  0.5435633442149964  0.6310199037892359  0.4703167559745102
 
  0.00000000E+00  0.00000000E+00  0.00000000E+00
  0.00000000E+00  0.00000000E+00  0.00000000E+00
  0.00000000E+00  0.00000000E+00  0.00000000E+00
  0.00000000E+00  0.00000000E+00  0.00000000E+00
  0.00000000E+00  0.00000000E+00  0.00000000E+00
  0.00000000E+00  0.00000000E+00  0.00000000E+00
  0.00000000E+00  0.00000000E+00  0.00000000E+00
  0.00000000E+00  0.00000000E+00  0.00000000E+00
  0.00000000E+00  0.00000000E+00  0.00000000E+00
  0.00000000E+00  0.00000000E+00  0.00000000E+00
  0.00000000E+00  0.00000000E+00  0.00000000E+00
  0.00000000E+00  0.00000000E+00  0.00000000E+00
  0.00000000E+00  0.00000000E+00  0.00000000E+00
  0.00000000E+00  0.00000000E+00  0.00000000E+00
  0.00000000E+00  0.00000000E+00  0.00000000E+00
  0.00000000E+00  0.00000000E+00  0.00000000E+00
  0.00000000E+00  0.00000000E+00  0.00000000E+00
  0.00000000E+00  0.00000000E+00  0.00000000E+00
  0.00000000E+00  0.00000000E+00  0.00000000E+00
  0.00000000E+00  0.00000000E+00  0.00000000E+00
  0.00000000E+00  0.00000000E+00  0.00000000E+00
  0.00000000E+00  0.00000000E+00  0.00000000E+00
  0.00000000E+00  0.00000000E+00  0.00000000E+00
  0.00000000E+00  0.00000000E+00  0.00000000E+00
  0.00000000E+00  0.00000000E+00  0.00000000E+00
  0.00000000E+00  0.00000000E+00  0.00000000E+00
  0.00000000E+00  0.00000000E+00  0.00000000E+00
  0.00000000E+00  0.00000000E+00  0.00000000E+00
  0.00000000E+00  0.00000000E+00  0.00000000E+00
  0.00000000E+00  0.00000000E+00  0.00000000E+00
  0.00000000E+00  0.00000000E+00  0.00000000E+00
  0.00000000E+00  0.00000000E+00  0.00000000E+00
  0.00000000E+00  0.00000000E+00  0.00000000E+00
  0.00000000E+00  0.00000000E+00  0.00000000E+00
  0.00000000E+00  0.00000000E+00  0.00000000E+00
  0.00000000E+00  0.00000000E+00  0.00000000E+00
  0.00000000E+00  0.00000000E+00  0.00000000E+00
  0.00000000E+00  0.00000000E+00  0.00000000E+00
  0.00000000E+00  0.00000000E+00  0.00000000E+00
  0.00000000E+00  0.00000000E+00  0.00000000E+00
  0.00000000E+00  0.00000000E+00  0.00000000E+00
  0.00000000E+00  0.00000000E+00  0.00000000E+00
  0.00000000E+00  0.00000000E+00  0.00000000E+00
  0.00000000E+00  0.00000000E+00  0.00000000E+00
  0.00000000E+00  0.00000000E+00  0.00000000E+00
  0.00000000E+00  0.00000000E+00  0.00000000E+00
  0.00000000E+00  0.00000000E+00  0.00000000E+00
  0.00000000E+00  0.00000000E+00  0.00000000E+00
  0.00000000E+00  0.00000000E+00  0.00000000E+00
  0.00000000E+00  0.00000000E+00  0.00000000E+00
  0.00000000E+00  0.00000000E+00  0.00000000E+00
  0.00000000E+00  0.00000000E+00  0.00000000E+00
  0.00000000E+00  0.00000000E+00  0.00000000E+00
  0.00000000E+00  0.00000000E+00  0.00000000E+00
  0.00000000E+00  0.00000000E+00  0.00000000E+00
  0.00000000E+00  0.00000000E+00  0.00000000E+00
  0.00000000E+00  0.00000000E+00  0.00000000E+00
  0.00000000E+00  0.00000000E+00  0.00000000E+00
  0.00000000E+00  0.00000000E+00  0.00000000E+00
  0.00000000E+00  0.00000000E+00  0.00000000E+00
  0.00000000E+00  0.00000000E+00  0.00000000E+00
  0.00000000E+00  0.00000000E+00  0.00000000E+00
  0.00000000E+00  0.00000000E+00  0.00000000E+00
  0.00000000E+00  0.00000000E+00  0.00000000E+00
  0.00000000E+00  0.00000000E+00  0.00000000E+00
  0.00000000E+00  0.00000000E+00  0.00000000E+00
  0.00000000E+00  0.00000000E+00  0.00000000E+00
  0.00000000E+00  0.00000000E+00  0.00000000E+00
  0.00000000E+00  0.00000000E+00  0.00000000E+00
  0.00000000E+00  0.00000000E+00  0.00000000E+00
  0.00000000E+00  0.00000000E+00  0.00000000E+00
  0.00000000E+00  0.00000000E+00  0.00000000E+00
  0.00000000E+00  0.00000000E+00  0.00000000E+00
  0.00000000E+00  0.00000000E+00  0.00000000E+00
  0.00000000E+00  0.00000000E+00  0.00000000E+00
  0.00000000E+00  0.00000000E+00  0.00000000E+00
  0.00000000E+00  0.00000000E+00  0.00000000E+00
  0.00000000E+00  0.00000000E+00  0.00000000E+00
  0.00000000E+00  0.00000000E+00  0.00000000E+00
  0.00000000E+00  0.00000000E+00  0.00000000E+00
  0.00000000E+00  0.00000000E+00  0.00000000E+00
  0.00000000E+00  0.00000000E+00  0.00000000E+00
