Ni   Pt   H                             
   1.00000000000000     
    10.5600004195999997    0.0000000000000000    0.0000000000000000
     5.2800002097999998    9.1452286273999999    0.0000000000000000
     0.0000000000000000    0.0000000000000000   22.0000000000000000
   Ni   Pt   H 
    64    16     2
Selective dynamics
Direct
  0.7858262477896847  0.8688322816221078  0.3108838422184537   T   T   T
  0.0358875010508005  0.8689603696110599  0.3108420408361531   T   T   T
  0.0362796408909169  0.6187135383476967  0.3107676389920808   T   T   T
  0.7874164227977971  0.8671974162722194  0.0507952848136384   F   F   F
  0.0371812071091995  0.8676186467801656  0.0508907119909097   F   F   F
  0.0374684841738073  0.6171956253437827  0.0509625431272696   F   F   F
  0.6195540567074858  0.2015927253995997  0.1375472916636369   F   F   F
  0.3695075232167966  0.9518242491084408  0.1375177793318159   F   F   F
  0.0355011883264048  0.3685789912241643  0.3110021195311177   T   T   T
  0.0370441529486243  0.3679087439453710  0.0510122538363618   F   F   F
  0.8696832728241688  0.2017788834137235  0.1375957440090900   F   F   F
  0.9528721333335812  0.5349536467792521  0.2251425816899185   T   T   T
  0.2859763586396420  0.1178887569647811  0.3109977606687166   T   T   T
  0.5352635085579346  0.6180413728080625  0.3120493775670324   T   T   T
  0.2860339594717079  0.3688663262245246  0.3108187937275718   T   T   T
  0.2865437969577087  0.1185517643978500  0.0509036111818162   F   F   F
  0.5363140996786200  0.6178282872416645  0.0507770374954575   F   F   F
  0.2861704337189792  0.3683748117358761  0.0510002003863619   F   F   F
  0.6196234901564495  0.9517335769848856  0.1373589130318180   F   F   F
  0.7024435387748634  0.7852746643310785  0.2249814486492961   T   T   T
  0.8696404260012258  0.7014772441204471  0.1376145676590923   F   F   F
  0.6196299646022467  0.4516165522451487  0.1375203790909083   F   F   F
  0.2891880804580109  0.8625722474691701  0.3129723956655418   T   T   T
  0.2865937880566349  0.8680734555957201  0.0508346510318205   F   F   F
  0.6194335686725978  0.7016555716469099  0.1373394372999996   F   F   F
  0.2032755396034496  0.0336680208123790  0.2255257493949014   T   T   T
  0.5365480261939060  0.3701299074584295  0.3117020970529414   T   T   T
  0.5363670832523084  0.3680933396912849  0.0508732332090887   F   F   F
  0.5357490614577818  0.1191576283595012  0.3107451845544429   T   T   T
  0.5357740562855895  0.1186998764413190  0.0508076041818200   F   F   F
  0.8695889210879457  0.4517664038733358  0.1377370143909076   F   F   F
  0.1194625732134043  0.4516968078549155  0.1379299702136336   F   F   F
  0.0358652601237468  0.1186091679800700  0.3108910513190714   T   T   T
  0.0372294765921879  0.1183068973757955  0.0509084329409077   F   F   F
  0.1194236500933172  0.9519185222901285  0.1376218898500028   F   F   F
  0.4528689345494660  0.5354403647761955  0.2253700036623389   T   T   T
  0.3693977441760410  0.2019043691557201  0.1377741168545441   F   F   F
  0.1196225089457670  0.2018141881625866  0.1378220913363606   F   F   F
  0.9526645572219690  0.7853668954258699  0.2250206901736289   T   T   T
  0.7861238138810570  0.6182244758097296  0.3107750937693637   T   T   T
  0.2874609229086286  0.6193479790458702  0.3118050456149098   T   T   T
  0.7873265514095209  0.6175143423293008  0.0508263513318212   F   F   F
  0.2865996923037599  0.6174998734400674  0.0509254706590880   F   F   F
  0.3692545354116845  0.7017889581208507  0.1375475984363632   F   F   F
  0.3695484132066582  0.4516338335080263  0.1377474529818201   F   F   F
  0.2024846184008985  0.2848336582146511  0.2253634071063742   T   T   T
  0.7804760336471582  0.3716524334690395  0.3127689797381479   T   T   T
  0.7871940568885378  0.3681532496423969  0.0508772485772724   F   F   F
  0.9526916075953542  0.0354594468943439  0.2250549225084224   T   T   T
  0.4522563180094275  0.7852937662001745  0.2251503971526946   T   T   T
  0.7026253480278569  0.5350020668790247  0.2251615878194397   T   T   T
  0.2032761950866568  0.7852298148462240  0.2253552229730172   T   T   T
  0.4523762961604373  0.0354817240332901  0.2249917536653273   T   T   T
  0.1194697833192677  0.7016886593380178  0.1377196208045461   F   F   F
  0.7024871443812760  0.0355091879569359  0.2249628419146714   T   T   T
  0.7860286054634966  0.1187837013435559  0.3108234883641124   T   T   T
  0.5353831332159805  0.8689836594348518  0.3107654846739133   T   T   T
  0.7868336547289516  0.1183080422132221  0.0508386848136340   F   F   F
  0.5365155299928688  0.8682561142222056  0.0507168413227248   F   F   F
  0.2029278441666184  0.5353449875846973  0.2250753633479880   T   T   T
  0.9513441192210916  0.2857277605051166  0.2255171893592032   T   T   T
  0.8694806842594929  0.9517801275761713  0.1375034099181818   F   F   F
  0.7026334513304617  0.2859337182359325  0.2252685098579804   T   T   T
  0.4526961653164314  0.2855173277414650  0.2250093448092055   T   T   T
  0.8690898322804419  0.9519469636296150  0.4082742394327892   T   T   T
  0.1191013831541082  0.4517598329393077  0.4081736353795631   T   T   T
  0.1183273039996841  0.9528044420001944  0.4082246059220628   T   T   T
  0.8710891881392651  0.4516590306180115  0.4083661610643387   T   T   T
  0.3688594121950203  0.9539076238674061  0.4083771785861730   T   T   T
  0.8700609741559485  0.2011025815038134  0.4082440901392175   T   T   T
  0.1192542500743160  0.2019716366768663  0.4079546263536206   T   T   T
  0.6192597278848233  0.9527437482277530  0.4081508862828337   T   T   T
  0.8698695991478309  0.7021166580183239  0.4081729851567185   T   T   T
  0.3689130170314046  0.2019815836361553  0.4081870574327922   T   T   T
  0.3673348751360104  0.7045116712164363  0.4144288954958690   T   T   T
  0.6222029499818841  0.4496865855003791  0.4135051388120748   T   T   T
  0.1177497723080807  0.7027296914058774  0.4076793149392377   T   T   T
  0.6198408123085746  0.2006669421433402  0.4076909044872816   T   T   T
  0.3676936764243005  0.4503834869428640  0.4079139827846069   T   T   T
  0.6212411117547118  0.7039481168698911  0.4069129797261243   T   T   T
  0.4656365754964066  0.5545281764795038  0.4793816129301047   T   T   T
  0.5182656302550497  0.6015269176903957  0.4792906197105198   T   T   T
 
  0.00000000E+00  0.00000000E+00  0.00000000E+00
  0.00000000E+00  0.00000000E+00  0.00000000E+00
  0.00000000E+00  0.00000000E+00  0.00000000E+00
  0.00000000E+00  0.00000000E+00  0.00000000E+00
  0.00000000E+00  0.00000000E+00  0.00000000E+00
  0.00000000E+00  0.00000000E+00  0.00000000E+00
  0.00000000E+00  0.00000000E+00  0.00000000E+00
  0.00000000E+00  0.00000000E+00  0.00000000E+00
  0.00000000E+00  0.00000000E+00  0.00000000E+00
  0.00000000E+00  0.00000000E+00  0.00000000E+00
  0.00000000E+00  0.00000000E+00  0.00000000E+00
  0.00000000E+00  0.00000000E+00  0.00000000E+00
  0.00000000E+00  0.00000000E+00  0.00000000E+00
  0.00000000E+00  0.00000000E+00  0.00000000E+00
  0.00000000E+00  0.00000000E+00  0.00000000E+00
  0.00000000E+00  0.00000000E+00  0.00000000E+00
  0.00000000E+00  0.00000000E+00  0.00000000E+00
  0.00000000E+00  0.00000000E+00  0.00000000E+00
  0.00000000E+00  0.00000000E+00  0.00000000E+00
  0.00000000E+00  0.00000000E+00  0.00000000E+00
  0.00000000E+00  0.00000000E+00  0.00000000E+00
  0.00000000E+00  0.00000000E+00  0.00000000E+00
  0.00000000E+00  0.00000000E+00  0.00000000E+00
  0.00000000E+00  0.00000000E+00  0.00000000E+00
  0.00000000E+00  0.00000000E+00  0.00000000E+00
  0.00000000E+00  0.00000000E+00  0.00000000E+00
  0.00000000E+00  0.00000000E+00  0.00000000E+00
  0.00000000E+00  0.00000000E+00  0.00000000E+00
  0.00000000E+00  0.00000000E+00  0.00000000E+00
  0.00000000E+00  0.00000000E+00  0.00000000E+00
  0.00000000E+00  0.00000000E+00  0.00000000E+00
  0.00000000E+00  0.00000000E+00  0.00000000E+00
  0.00000000E+00  0.00000000E+00  0.00000000E+00
  0.00000000E+00  0.00000000E+00  0.00000000E+00
  0.00000000E+00  0.00000000E+00  0.00000000E+00
  0.00000000E+00  0.00000000E+00  0.00000000E+00
  0.00000000E+00  0.00000000E+00  0.00000000E+00
  0.00000000E+00  0.00000000E+00  0.00000000E+00
  0.00000000E+00  0.00000000E+00  0.00000000E+00
  0.00000000E+00  0.00000000E+00  0.00000000E+00
  0.00000000E+00  0.00000000E+00  0.00000000E+00
  0.00000000E+00  0.00000000E+00  0.00000000E+00
  0.00000000E+00  0.00000000E+00  0.00000000E+00
  0.00000000E+00  0.00000000E+00  0.00000000E+00
  0.00000000E+00  0.00000000E+00  0.00000000E+00
  0.00000000E+00  0.00000000E+00  0.00000000E+00
  0.00000000E+00  0.00000000E+00  0.00000000E+00
  0.00000000E+00  0.00000000E+00  0.00000000E+00
  0.00000000E+00  0.00000000E+00  0.00000000E+00
  0.00000000E+00  0.00000000E+00  0.00000000E+00
  0.00000000E+00  0.00000000E+00  0.00000000E+00
  0.00000000E+00  0.00000000E+00  0.00000000E+00
  0.00000000E+00  0.00000000E+00  0.00000000E+00
  0.00000000E+00  0.00000000E+00  0.00000000E+00
  0.00000000E+00  0.00000000E+00  0.00000000E+00
  0.00000000E+00  0.00000000E+00  0.00000000E+00
  0.00000000E+00  0.00000000E+00  0.00000000E+00
  0.00000000E+00  0.00000000E+00  0.00000000E+00
  0.00000000E+00  0.00000000E+00  0.00000000E+00
  0.00000000E+00  0.00000000E+00  0.00000000E+00
  0.00000000E+00  0.00000000E+00  0.00000000E+00
  0.00000000E+00  0.00000000E+00  0.00000000E+00
  0.00000000E+00  0.00000000E+00  0.00000000E+00
  0.00000000E+00  0.00000000E+00  0.00000000E+00
  0.00000000E+00  0.00000000E+00  0.00000000E+00
  0.00000000E+00  0.00000000E+00  0.00000000E+00
  0.00000000E+00  0.00000000E+00  0.00000000E+00
  0.00000000E+00  0.00000000E+00  0.00000000E+00
  0.00000000E+00  0.00000000E+00  0.00000000E+00
  0.00000000E+00  0.00000000E+00  0.00000000E+00
  0.00000000E+00  0.00000000E+00  0.00000000E+00
  0.00000000E+00  0.00000000E+00  0.00000000E+00
  0.00000000E+00  0.00000000E+00  0.00000000E+00
  0.00000000E+00  0.00000000E+00  0.00000000E+00
  0.00000000E+00  0.00000000E+00  0.00000000E+00
  0.00000000E+00  0.00000000E+00  0.00000000E+00
  0.00000000E+00  0.00000000E+00  0.00000000E+00
  0.00000000E+00  0.00000000E+00  0.00000000E+00
  0.00000000E+00  0.00000000E+00  0.00000000E+00
  0.00000000E+00  0.00000000E+00  0.00000000E+00
  0.00000000E+00  0.00000000E+00  0.00000000E+00
  0.00000000E+00  0.00000000E+00  0.00000000E+00
