10.96                                   
   1.00000000000000     
    10.9600000381000005    0.0000000000000000    0.0000000000000000
     5.4800000191000002    9.4916384585000007    0.0000000000000000
     0.0000000000000000    0.0000000000000000   22.0000000000000000
   Pt   Fe   Co   Cu   Ni
    32    13    10    13    12
Direct
  0.7860871788130126  0.8797828081165875  0.3132588430724184
  0.0431641130731322  0.8811324764173705  0.3102519983600516
  0.2790497713454485  0.3796816828835503  0.3163268977310949
  0.8744724226891947  0.9637441195167185  0.4152633367754461
  0.1180774322094251  0.4652615205347672  0.4198918487131706
  0.1252747423322589  0.9606892993633380  0.4144056629940991
  0.8751066277925901  0.4576130968606975  0.4200342014839009
  0.3734976091734197  0.9600228048132067  0.4151940008839432
  0.8733539457662189  0.2108822378099049  0.4138806410113887
  0.1263701438272520  0.2123683982943234  0.4160840524024820
  0.6247813611122055  0.9593447154982471  0.4169233251698046
  0.8735389160354998  0.7121755953199127  0.4194964467204443
  0.3752459211722723  0.2075903408389834  0.4179864596805913
  0.3761003450694886  0.7127899393513744  0.4169324658142202
  0.6262685428183019  0.4621885945814839  0.4170413000921869
  0.1231036722466854  0.7107718280282000  0.4184508648153553
  0.6248436667758668  0.2099755336509475  0.4157217558518553
  0.5475701677977014  0.3768053163595511  0.3151869004048535
  0.5337432754722968  0.1253269715069294  0.3124060036761449
  0.5522125408288261  0.1229980439690550  0.0492007837807975
  0.1179447475157787  0.4553776451878448  0.1279299605928657
  0.0464495678694732  0.1348492878738341  0.3117065869343492
  0.0331546293129250  0.1349486531165169  0.0377446314221785
  0.1316392841248657  0.9574759255117868  0.1340278733999440
  0.3733378944708505  0.4610189797023523  0.4187781416405159
  0.4566663465059548  0.5492648756310956  0.2193267658185576
  0.6220789942868592  0.7112022639715079  0.4178481659322344
  0.9558082579090268  0.7831430855639496  0.2183892191641945
  0.7973945448230850  0.6233119915470127  0.3173869951131394
  0.2891384546416589  0.6309456985117521  0.3152259691607924
  0.1986792080514519  0.2771687989613127  0.2254811289210465
  0.7045827475173709  0.5523289943746263  0.2213619481162041
  0.0406457744373441  0.6325725572039858  0.3207468882548667
  0.7920397940588870  0.8619624074887540  0.0511947968210009
  0.0526981245032374  0.8624210274664819  0.0444735392440450
  0.0457035805784827  0.6408036659247784  0.0458596178833872
  0.6280262762683364  0.2294732051188717  0.1337968902665310
  0.3825060135987570  0.9534483106524263  0.1327341964002429
  0.0349713469374180  0.3841311354866335  0.3214221027395325
  0.0161929607456983  0.3818764830392993  0.0412025563989573
  0.8704299207425166  0.2168907108674745  0.1317857703389720
  0.9563404382449221  0.5414389604053795  0.2237078816551517
  0.2986483960390416  0.1152882418630981  0.3190475016933760
  0.5412481340157740  0.6272237614401419  0.3201113958694393
  0.2929366193417735  0.1152265724656729  0.0453832930515077
  0.5520103083128731  0.6233459614529266  0.0478800615067243
  0.3057569488878755  0.3802645026943949  0.0468428708377360
  0.6239564555154615  0.9453132092922658  0.1363931434767451
  0.7083597009655023  0.7902410750617150  0.2210134316645309
  0.8605432662272321  0.6969997948945519  0.1321407462189654
  0.6280822250973088  0.4576845886504231  0.1300764273484205
  0.2973725725510832  0.8743618911495972  0.3171408619612635
  0.3062668485031494  0.8731072350829905  0.0445594179639670
  0.6226125853190680  0.7181745901932857  0.1307167480919702
  0.2304623798564762  0.0242330841823417  0.2276022954313248
  0.5428213397603017  0.3783856650797830  0.0401873396767627
  0.3772698501755656  0.2056045922454146  0.1374041287415224
  0.1480591264593372  0.7031483988286027  0.1372085456592416
  0.7035999555250783  0.0531163182034078  0.2207213082320791
  0.7934041921565438  0.1287882764691304  0.3142596234255208
  0.5399979877270695  0.8718278399010728  0.3162682617182995
  0.7916566268097256  0.1278317223838172  0.0406717152152822
  0.5477391611298117  0.8745077200459903  0.0407165425410270
  0.2081864432268574  0.5393639650816127  0.2229058860857052
  0.9479545332595976  0.3025804781311692  0.2228709549163739
  0.8695284713279037  0.9706931983726932  0.1330532267218985
  0.7178726439596801  0.2936926343423636  0.2256009570884672
  0.4565257253247879  0.2958654421012810  0.2224053839011759
  0.8724899802023316  0.4567009542554246  0.1303056939181388
  0.1243640075812209  0.2032220342569886  0.1319550582481313
  0.7873792025456581  0.6247287542780739  0.0440385979241924
  0.2993238400764895  0.6211331967085272  0.0480245963695012
  0.3856511081383047  0.7159506384295113  0.1307995094089236
  0.3847156394087321  0.4515386979680684  0.1311039896938411
  0.7926183723176763  0.3834320068428951  0.3193068422006533
  0.7893358288445000  0.3732859221096305  0.0438327165334016
  0.9536690361920392  0.0590088832495965  0.2213364501536290
  0.4606923424515230  0.7960359873798311  0.2256473434851358
  0.2223569724675016  0.7974698432955307  0.2249389915040751
  0.4608302578031527  0.0261812332933573  0.2241487908680853
 
  0.00000000E+00  0.00000000E+00  0.00000000E+00
  0.00000000E+00  0.00000000E+00  0.00000000E+00
  0.00000000E+00  0.00000000E+00  0.00000000E+00
  0.00000000E+00  0.00000000E+00  0.00000000E+00
  0.00000000E+00  0.00000000E+00  0.00000000E+00
  0.00000000E+00  0.00000000E+00  0.00000000E+00
  0.00000000E+00  0.00000000E+00  0.00000000E+00
  0.00000000E+00  0.00000000E+00  0.00000000E+00
  0.00000000E+00  0.00000000E+00  0.00000000E+00
  0.00000000E+00  0.00000000E+00  0.00000000E+00
  0.00000000E+00  0.00000000E+00  0.00000000E+00
  0.00000000E+00  0.00000000E+00  0.00000000E+00
  0.00000000E+00  0.00000000E+00  0.00000000E+00
  0.00000000E+00  0.00000000E+00  0.00000000E+00
  0.00000000E+00  0.00000000E+00  0.00000000E+00
  0.00000000E+00  0.00000000E+00  0.00000000E+00
  0.00000000E+00  0.00000000E+00  0.00000000E+00
  0.00000000E+00  0.00000000E+00  0.00000000E+00
  0.00000000E+00  0.00000000E+00  0.00000000E+00
  0.00000000E+00  0.00000000E+00  0.00000000E+00
  0.00000000E+00  0.00000000E+00  0.00000000E+00
  0.00000000E+00  0.00000000E+00  0.00000000E+00
  0.00000000E+00  0.00000000E+00  0.00000000E+00
  0.00000000E+00  0.00000000E+00  0.00000000E+00
  0.00000000E+00  0.00000000E+00  0.00000000E+00
  0.00000000E+00  0.00000000E+00  0.00000000E+00
  0.00000000E+00  0.00000000E+00  0.00000000E+00
  0.00000000E+00  0.00000000E+00  0.00000000E+00
  0.00000000E+00  0.00000000E+00  0.00000000E+00
  0.00000000E+00  0.00000000E+00  0.00000000E+00
  0.00000000E+00  0.00000000E+00  0.00000000E+00
  0.00000000E+00  0.00000000E+00  0.00000000E+00
  0.00000000E+00  0.00000000E+00  0.00000000E+00
  0.00000000E+00  0.00000000E+00  0.00000000E+00
  0.00000000E+00  0.00000000E+00  0.00000000E+00
  0.00000000E+00  0.00000000E+00  0.00000000E+00
  0.00000000E+00  0.00000000E+00  0.00000000E+00
  0.00000000E+00  0.00000000E+00  0.00000000E+00
  0.00000000E+00  0.00000000E+00  0.00000000E+00
  0.00000000E+00  0.00000000E+00  0.00000000E+00
  0.00000000E+00  0.00000000E+00  0.00000000E+00
  0.00000000E+00  0.00000000E+00  0.00000000E+00
  0.00000000E+00  0.00000000E+00  0.00000000E+00
  0.00000000E+00  0.00000000E+00  0.00000000E+00
  0.00000000E+00  0.00000000E+00  0.00000000E+00
  0.00000000E+00  0.00000000E+00  0.00000000E+00
  0.00000000E+00  0.00000000E+00  0.00000000E+00
  0.00000000E+00  0.00000000E+00  0.00000000E+00
  0.00000000E+00  0.00000000E+00  0.00000000E+00
  0.00000000E+00  0.00000000E+00  0.00000000E+00
  0.00000000E+00  0.00000000E+00  0.00000000E+00
  0.00000000E+00  0.00000000E+00  0.00000000E+00
  0.00000000E+00  0.00000000E+00  0.00000000E+00
  0.00000000E+00  0.00000000E+00  0.00000000E+00
  0.00000000E+00  0.00000000E+00  0.00000000E+00
  0.00000000E+00  0.00000000E+00  0.00000000E+00
  0.00000000E+00  0.00000000E+00  0.00000000E+00
  0.00000000E+00  0.00000000E+00  0.00000000E+00
  0.00000000E+00  0.00000000E+00  0.00000000E+00
  0.00000000E+00  0.00000000E+00  0.00000000E+00
  0.00000000E+00  0.00000000E+00  0.00000000E+00
  0.00000000E+00  0.00000000E+00  0.00000000E+00
  0.00000000E+00  0.00000000E+00  0.00000000E+00
  0.00000000E+00  0.00000000E+00  0.00000000E+00
  0.00000000E+00  0.00000000E+00  0.00000000E+00
  0.00000000E+00  0.00000000E+00  0.00000000E+00
  0.00000000E+00  0.00000000E+00  0.00000000E+00
  0.00000000E+00  0.00000000E+00  0.00000000E+00
  0.00000000E+00  0.00000000E+00  0.00000000E+00
  0.00000000E+00  0.00000000E+00  0.00000000E+00
  0.00000000E+00  0.00000000E+00  0.00000000E+00
  0.00000000E+00  0.00000000E+00  0.00000000E+00
  0.00000000E+00  0.00000000E+00  0.00000000E+00
  0.00000000E+00  0.00000000E+00  0.00000000E+00
  0.00000000E+00  0.00000000E+00  0.00000000E+00
  0.00000000E+00  0.00000000E+00  0.00000000E+00
  0.00000000E+00  0.00000000E+00  0.00000000E+00
  0.00000000E+00  0.00000000E+00  0.00000000E+00
  0.00000000E+00  0.00000000E+00  0.00000000E+00
  0.00000000E+00  0.00000000E+00  0.00000000E+00
