11.26                                   
   1.00000000000000     
    11.2227001190000006    0.0000000000000000    0.0000000000000000
     5.6113500595000003    9.7191434021000003    0.0000000000000000
     0.0000000000000000    0.0000000000000000   22.0000000000000000
   Pt   Fe   Co   Ni
    32    16    15    17
Direct
  0.7827514496879361  0.8708097615250425  0.3042959928926519
  0.0287166562606192  0.8701054773346441  0.2994091969445423
  0.2794144963982643  0.3602213762785924  0.3106560637455589
  0.8705120930435035  0.9575797707128610  0.4059051344690528
  0.1104483969310042  0.4589044784139372  0.4101215176957360
  0.1265714505726752  0.9472808813907467  0.4012350653015824
  0.8696105402991912  0.4460364619417292  0.4110514144979027
  0.3745023334504211  0.9556376592566801  0.4146822718799352
  0.8730702717176847  0.1993900136615881  0.4044612155191085
  0.1245315768530820  0.2013654947438507  0.4093720514738992
  0.6247680227581354  0.9489098172209328  0.4130452602472057
  0.8719963484316062  0.7056187235913756  0.4112623570062807
  0.3690170279527378  0.2029715193738880  0.4141216290314518
  0.3688900102138683  0.7010358811068399  0.4014607597658693
  0.6181552458067863  0.4588970719831416  0.4044791552238499
  0.1162246355816538  0.7035581173725496  0.4070112450906915
  0.6231018219340826  0.2054278252725841  0.4106069516159283
  0.5378601118461933  0.3649033268420581  0.3067011143687212
  0.5364547450582294  0.1123993654057763  0.3130506372533507
  0.5375076487192009  0.1169073699597854  0.0531220763264108
  0.1060159474129472  0.4196903701887876  0.1184692797557190
  0.0507580083184714  0.1235030142617714  0.3051790104826984
  0.0245780338305018  0.1097680969558929  0.0430117810672742
  0.1169260853279249  0.9524257744695052  0.1460113291260010
  0.3686750471814216  0.4519699819423934  0.4085821653402333
  0.4507798513786300  0.5618345619100350  0.2220556187451386
  0.6189456103738947  0.7061865530227565  0.4105479042704738
  0.9486300860081344  0.7563834836842974  0.2065586565001389
  0.7972453345055280  0.6149818661962604  0.3124253749162631
  0.2670168256320352  0.6126011865883235  0.3048391697017588
  0.1912446586283047  0.2608944894165727  0.2240584527011023
  0.6997735942747448  0.5388438066413597  0.2217140734194527
  0.0304740488745332  0.6228803582093764  0.3114799195778282
  0.7908872107756268  0.8845713640106181  0.0590154774763115
  0.0431671302100973  0.8645701532314287  0.0570202552839119
  0.0421493158287484  0.6575489276845439  0.0841343607915218
  0.6242636984106427  0.2112047253243993  0.1379027481671611
  0.3765739752088896  0.9544076052511166  0.1361219542993517
  0.0289867852182197  0.3715536092703319  0.3170832288134960
  0.9829997705101717  0.3538927260393539  0.0428426668351861
  0.8658294734042825  0.2056136287414830  0.1348809598177794
  0.9483266235543353  0.5214631290732293  0.2168444122605795
  0.3032635688055554  0.1083914538378594  0.3184940080368232
  0.5413855238674659  0.6354031798390097  0.3161242799367742
  0.2847406250391919  0.1106504996957585  0.0527892048908750
  0.5347394070464866  0.3670804573725319  0.0500104259874681
  0.3590277917229538  0.2092973479878604  0.1353676211964649
  0.1795593542400529  0.6914409692314183  0.1579673919182124
  0.5212171467646581  0.6245286249255261  0.0521856767020477
  0.3151048399558967  0.3737904076353341  0.0562376898158198
  0.6422458949419750  0.9322045230570321  0.1407324841555286
  0.6833132047304347  0.7857360920944975  0.2233291051460340
  0.8295527645907359  0.6808095917881893  0.1286545647089631
  0.6085657030887218  0.4600908835201883  0.1304246345873336
  0.3204921182471682  0.8768700719386614  0.3177785328403328
  0.2872073272806132  0.8837786299037946  0.0528704927409302
  0.6032048154498875  0.7172003307544020  0.1319261668637010
  0.2439096344737435  0.0149315574597236  0.2294272331672025
  0.6976537942083016  0.0566164128909417  0.2220366322549455
  0.7719935923567570  0.1236565443580066  0.3127040375096331
  0.5351431463752366  0.8739354854003133  0.3158129614100486
  0.7741422871113816  0.1303526627240744  0.0510236411153974
  0.5357933357548569  0.8795584207806577  0.0554483186194678
  0.1814597450662048  0.5098063442882695  0.2171239293043891
  0.9349898804628920  0.3002506672754038  0.2236450676880462
  0.8637922699628933  0.9774248099040432  0.1391290802609890
  0.7103683752914431  0.2901671282396506  0.2217569249557786
  0.4576128818540665  0.2618566628429578  0.2213986287383889
  0.8581290774868761  0.4368715359456439  0.1313162540373934
  0.1100745241372554  0.1878027748433356  0.1340892703363218
  0.7528583583292412  0.5916146920997732  0.0478918017797264
  0.3015051675724947  0.6160063720540607  0.0630200835100270
  0.3734188990718617  0.7330867030841618  0.1363920454967840
  0.3936768738022033  0.4342038804404792  0.1433610557726938
  0.7876453923117064  0.3661811136197856  0.3133483435297551
  0.7669098264106482  0.3554787377257643  0.0472348453462336
  0.9208175640666583  0.0708794067559959  0.2271199104599091
  0.4649313895323031  0.7934409722763888  0.2269696011852760
  0.2368418030071573  0.8043381320116109  0.2355582224829818
  0.4569958715166426  0.0304147897158339  0.2234290062493426
 
  0.00000000E+00  0.00000000E+00  0.00000000E+00
  0.00000000E+00  0.00000000E+00  0.00000000E+00
  0.00000000E+00  0.00000000E+00  0.00000000E+00
  0.00000000E+00  0.00000000E+00  0.00000000E+00
  0.00000000E+00  0.00000000E+00  0.00000000E+00
  0.00000000E+00  0.00000000E+00  0.00000000E+00
  0.00000000E+00  0.00000000E+00  0.00000000E+00
  0.00000000E+00  0.00000000E+00  0.00000000E+00
  0.00000000E+00  0.00000000E+00  0.00000000E+00
  0.00000000E+00  0.00000000E+00  0.00000000E+00
  0.00000000E+00  0.00000000E+00  0.00000000E+00
  0.00000000E+00  0.00000000E+00  0.00000000E+00
  0.00000000E+00  0.00000000E+00  0.00000000E+00
  0.00000000E+00  0.00000000E+00  0.00000000E+00
  0.00000000E+00  0.00000000E+00  0.00000000E+00
  0.00000000E+00  0.00000000E+00  0.00000000E+00
  0.00000000E+00  0.00000000E+00  0.00000000E+00
  0.00000000E+00  0.00000000E+00  0.00000000E+00
  0.00000000E+00  0.00000000E+00  0.00000000E+00
  0.00000000E+00  0.00000000E+00  0.00000000E+00
  0.00000000E+00  0.00000000E+00  0.00000000E+00
  0.00000000E+00  0.00000000E+00  0.00000000E+00
  0.00000000E+00  0.00000000E+00  0.00000000E+00
  0.00000000E+00  0.00000000E+00  0.00000000E+00
  0.00000000E+00  0.00000000E+00  0.00000000E+00
  0.00000000E+00  0.00000000E+00  0.00000000E+00
  0.00000000E+00  0.00000000E+00  0.00000000E+00
  0.00000000E+00  0.00000000E+00  0.00000000E+00
  0.00000000E+00  0.00000000E+00  0.00000000E+00
  0.00000000E+00  0.00000000E+00  0.00000000E+00
  0.00000000E+00  0.00000000E+00  0.00000000E+00
  0.00000000E+00  0.00000000E+00  0.00000000E+00
  0.00000000E+00  0.00000000E+00  0.00000000E+00
  0.00000000E+00  0.00000000E+00  0.00000000E+00
  0.00000000E+00  0.00000000E+00  0.00000000E+00
  0.00000000E+00  0.00000000E+00  0.00000000E+00
  0.00000000E+00  0.00000000E+00  0.00000000E+00
  0.00000000E+00  0.00000000E+00  0.00000000E+00
  0.00000000E+00  0.00000000E+00  0.00000000E+00
  0.00000000E+00  0.00000000E+00  0.00000000E+00
  0.00000000E+00  0.00000000E+00  0.00000000E+00
  0.00000000E+00  0.00000000E+00  0.00000000E+00
  0.00000000E+00  0.00000000E+00  0.00000000E+00
  0.00000000E+00  0.00000000E+00  0.00000000E+00
  0.00000000E+00  0.00000000E+00  0.00000000E+00
  0.00000000E+00  0.00000000E+00  0.00000000E+00
  0.00000000E+00  0.00000000E+00  0.00000000E+00
  0.00000000E+00  0.00000000E+00  0.00000000E+00
  0.00000000E+00  0.00000000E+00  0.00000000E+00
  0.00000000E+00  0.00000000E+00  0.00000000E+00
  0.00000000E+00  0.00000000E+00  0.00000000E+00
  0.00000000E+00  0.00000000E+00  0.00000000E+00
  0.00000000E+00  0.00000000E+00  0.00000000E+00
  0.00000000E+00  0.00000000E+00  0.00000000E+00
  0.00000000E+00  0.00000000E+00  0.00000000E+00
  0.00000000E+00  0.00000000E+00  0.00000000E+00
  0.00000000E+00  0.00000000E+00  0.00000000E+00
  0.00000000E+00  0.00000000E+00  0.00000000E+00
  0.00000000E+00  0.00000000E+00  0.00000000E+00
  0.00000000E+00  0.00000000E+00  0.00000000E+00
  0.00000000E+00  0.00000000E+00  0.00000000E+00
  0.00000000E+00  0.00000000E+00  0.00000000E+00
  0.00000000E+00  0.00000000E+00  0.00000000E+00
  0.00000000E+00  0.00000000E+00  0.00000000E+00
  0.00000000E+00  0.00000000E+00  0.00000000E+00
  0.00000000E+00  0.00000000E+00  0.00000000E+00
  0.00000000E+00  0.00000000E+00  0.00000000E+00
  0.00000000E+00  0.00000000E+00  0.00000000E+00
  0.00000000E+00  0.00000000E+00  0.00000000E+00
  0.00000000E+00  0.00000000E+00  0.00000000E+00
  0.00000000E+00  0.00000000E+00  0.00000000E+00
  0.00000000E+00  0.00000000E+00  0.00000000E+00
  0.00000000E+00  0.00000000E+00  0.00000000E+00
  0.00000000E+00  0.00000000E+00  0.00000000E+00
  0.00000000E+00  0.00000000E+00  0.00000000E+00
  0.00000000E+00  0.00000000E+00  0.00000000E+00
  0.00000000E+00  0.00000000E+00  0.00000000E+00
  0.00000000E+00  0.00000000E+00  0.00000000E+00
  0.00000000E+00  0.00000000E+00  0.00000000E+00
  0.00000000E+00  0.00000000E+00  0.00000000E+00
