Ni   Pt   H                             
   1.00000000000000     
    10.5600004195999997    0.0000000000000000    0.0000000000000000
     5.2800002097999998    9.1452286273999999    0.0000000000000000
     0.0000000000000000    0.0000000000000000   22.0000000000000000
   Ni   Pt   H 
    64    16     2
Selective dynamics
Direct
  0.7858262477861189  0.8688322816221330  0.3108838422181819   F   F   F
  0.0358875010522937  0.8689603696063415  0.3108420408363628   F   F   F
  0.0362796408873578  0.6187135383523668  0.3107676389909102   F   F   F
  0.7874164227977971  0.8671974162722194  0.0507952848136384   F   F   F
  0.0371812071091995  0.8676186467801656  0.0508907119909097   F   F   F
  0.0374684841738073  0.6171956253437827  0.0509625431272696   F   F   F
  0.6195540567074858  0.2015927253995997  0.1375472916636369   F   F   F
  0.3695075232167966  0.9518242491084408  0.1375177793318159   F   F   F
  0.0355011883250995  0.3685789912240054  0.3110021195318211   F   F   F
  0.0370441529486243  0.3679087439453710  0.0510122538363618   F   F   F
  0.8696832728241688  0.2017788834137235  0.1375957440090900   F   F   F
  0.9528721333354824  0.5349536467838831  0.2251425816909105   F   F   F
  0.2859763586384432  0.1178887569600917  0.3109977606681795   F   F   F
  0.5352635085629203  0.6180413728056706  0.3120493775681794   F   F   F
  0.2860339594707000  0.3688663262275469  0.3108187937272717   F   F   F
  0.2865437969577087  0.1185517643978500  0.0509036111818162   F   F   F
  0.5363140996786200  0.6178282872416645  0.0507770374954575   F   F   F
  0.2861704337189792  0.3683748117358761  0.0510002003863619   F   F   F
  0.6196234901564495  0.9517335769848856  0.1373589130318180   F   F   F
  0.7024435387730321  0.7852746643297124  0.2249814486499986   F   F   F
  0.8696404260012258  0.7014772441204471  0.1376145676590923   F   F   F
  0.6196299646022467  0.4516165522451487  0.1375203790909083   F   F   F
  0.2891880804570377  0.8625722474739987  0.3129723956636354   F   F   F
  0.2865937880566349  0.8680734555957201  0.0508346510318205   F   F   F
  0.6194335686725978  0.7016555716469099  0.1373394372999996   F   F   F
  0.2032755396051442  0.0336680208166129  0.2255257493954517   F   F   F
  0.5365480261985880  0.3701299074534248  0.3117020970545425   F   F   F
  0.5363670832523084  0.3680933396912849  0.0508732332090887   F   F   F
  0.5357490614572953  0.1191576283544293  0.3107451845545484   F   F   F
  0.5357740562855895  0.1186998764413190  0.0508076041818200   F   F   F
  0.8695889210879457  0.4517664038733358  0.1377370143909076   F   F   F
  0.1194625732134043  0.4516968078549155  0.1379299702136336   F   F   F
  0.0358652601252274  0.1186091679818801  0.3108910513181797   F   F   F
  0.0372294765921879  0.1183068973757955  0.0509084329409077   F   F   F
  0.1194236500933172  0.9519185222901285  0.1376218898500028   F   F   F
  0.4528689345484977  0.5354403647743595  0.2253700036636346   F   F   F
  0.3693977441760410  0.2019043691557201  0.1377741168545441   F   F   F
  0.1196225089457670  0.2018141881625866  0.1378220913363606   F   F   F
  0.9526645572178793  0.7853668954301440  0.2250206901727267   F   F   F
  0.7861238138810123  0.6182244758059596  0.3107750937681786   F   F   F
  0.2874609229048986  0.6193479790466796  0.3118050456136388   F   F   F
  0.7873265514095209  0.6175143423293008  0.0508263513318212   F   F   F
  0.2865996923037599  0.6174998734400674  0.0509254706590880   F   F   F
  0.3692545354116845  0.7017889581208507  0.1375475984363632   F   F   F
  0.3695484132066582  0.4516338335080263  0.1377474529818201   F   F   F
  0.2024846183975484  0.2848336582199309  0.2253634071045454   F   F   F
  0.7804760336482275  0.3716524334686113  0.3127689797363615   F   F   F
  0.7871940568885378  0.3681532496423969  0.0508772485772724   F   F   F
  0.9526916075982825  0.0354594468888862  0.2250549225090879   F   F   F
  0.4522563180043448  0.7852937662031678  0.2251503971545432   F   F   F
  0.7026253480337985  0.5350020668746254  0.2251615878181852   F   F   F
  0.2032761950840367  0.7852298148440724  0.2253552229727305   F   F   F
  0.4523762961582207  0.0354817240356127  0.2249917536636374   F   F   F
  0.1194697833192677  0.7016886593380178  0.1377196208045461   F   F   F
  0.7024871443841647  0.0355091879526199  0.2249628419136371   F   F   F
  0.7860286054607073  0.1187837013440358  0.3108234883636385   F   F   F
  0.5353831332128962  0.8689836594341500  0.3107654846727286   F   F   F
  0.7868336547289516  0.1183080422132221  0.0508386848136340   F   F   F
  0.5365155299928688  0.8682561142222056  0.0507168413227248   F   F   F
  0.2029278441653233  0.5353449875852831  0.2250753633500011   F   F   F
  0.9513441192245793  0.2857277605035549  0.2255171893590884   F   F   F
  0.8694806842594929  0.9517801275761713  0.1375034099181818   F   F   F
  0.7026334513230665  0.2859337182413810  0.2252685098590916   F   F   F
  0.4526961653182440  0.2855173277436549  0.2250093448090880   F   F   F
  0.8690898322745610  0.9519469636348532  0.4082742394318188   F   F   F
  0.1191013831562273  0.4517598329386487  0.4081736353818215   F   F   F
  0.1183273039949810  0.9528044420008470  0.4082246059227259   F   F   F
  0.8710891881428040  0.4516590306145574  0.4083661610636398   F   F   F
  0.3688594121940838  0.9539076238687940  0.4083771785863632   F   F   F
  0.8700609741570347  0.2011025815024254  0.4082440901409115   F   F   F
  0.1192542500767431  0.2019716366812290  0.4079546263545453   F   F   F
  0.6192597278799639  0.9527437482311640  0.4081508862818168   F   F   F
  0.8698695991432217  0.7021166580201168  0.4081729851545433   F   F   F
  0.3689130170280421  0.2019815836386769  0.4081870574318174   F   F   F
  0.3673348751385888  0.7045116712114066  0.4144288954954547   F   F   F
  0.6222029499832828  0.4496865855030237  0.4135051388136333   F   F   F
  0.1177497723028935  0.7027296914092673  0.4076793149409070   F   F   F
  0.6198408123083468  0.2006669421474854  0.4076909044863655   F   F   F
  0.3676936764266898  0.4503834869430676  0.4079139827863614   F   F   F
  0.6212411117582874  0.7039481168695829  0.4069129797272737   F   F   F
  0.4656365755009801  0.5545281764751024  0.4793816129318174   T   T   T
  0.5182656302592931  0.6015269176888793  0.4770178924363627   T   T   T
 
  0.00000000E+00  0.00000000E+00  0.00000000E+00
  0.00000000E+00  0.00000000E+00  0.00000000E+00
  0.00000000E+00  0.00000000E+00  0.00000000E+00
  0.00000000E+00  0.00000000E+00  0.00000000E+00
  0.00000000E+00  0.00000000E+00  0.00000000E+00
  0.00000000E+00  0.00000000E+00  0.00000000E+00
  0.00000000E+00  0.00000000E+00  0.00000000E+00
  0.00000000E+00  0.00000000E+00  0.00000000E+00
  0.00000000E+00  0.00000000E+00  0.00000000E+00
  0.00000000E+00  0.00000000E+00  0.00000000E+00
  0.00000000E+00  0.00000000E+00  0.00000000E+00
  0.00000000E+00  0.00000000E+00  0.00000000E+00
  0.00000000E+00  0.00000000E+00  0.00000000E+00
  0.00000000E+00  0.00000000E+00  0.00000000E+00
  0.00000000E+00  0.00000000E+00  0.00000000E+00
  0.00000000E+00  0.00000000E+00  0.00000000E+00
  0.00000000E+00  0.00000000E+00  0.00000000E+00
  0.00000000E+00  0.00000000E+00  0.00000000E+00
  0.00000000E+00  0.00000000E+00  0.00000000E+00
  0.00000000E+00  0.00000000E+00  0.00000000E+00
  0.00000000E+00  0.00000000E+00  0.00000000E+00
  0.00000000E+00  0.00000000E+00  0.00000000E+00
  0.00000000E+00  0.00000000E+00  0.00000000E+00
  0.00000000E+00  0.00000000E+00  0.00000000E+00
  0.00000000E+00  0.00000000E+00  0.00000000E+00
  0.00000000E+00  0.00000000E+00  0.00000000E+00
  0.00000000E+00  0.00000000E+00  0.00000000E+00
  0.00000000E+00  0.00000000E+00  0.00000000E+00
  0.00000000E+00  0.00000000E+00  0.00000000E+00
  0.00000000E+00  0.00000000E+00  0.00000000E+00
  0.00000000E+00  0.00000000E+00  0.00000000E+00
  0.00000000E+00  0.00000000E+00  0.00000000E+00
  0.00000000E+00  0.00000000E+00  0.00000000E+00
  0.00000000E+00  0.00000000E+00  0.00000000E+00
  0.00000000E+00  0.00000000E+00  0.00000000E+00
  0.00000000E+00  0.00000000E+00  0.00000000E+00
  0.00000000E+00  0.00000000E+00  0.00000000E+00
  0.00000000E+00  0.00000000E+00  0.00000000E+00
  0.00000000E+00  0.00000000E+00  0.00000000E+00
  0.00000000E+00  0.00000000E+00  0.00000000E+00
  0.00000000E+00  0.00000000E+00  0.00000000E+00
  0.00000000E+00  0.00000000E+00  0.00000000E+00
  0.00000000E+00  0.00000000E+00  0.00000000E+00
  0.00000000E+00  0.00000000E+00  0.00000000E+00
  0.00000000E+00  0.00000000E+00  0.00000000E+00
  0.00000000E+00  0.00000000E+00  0.00000000E+00
  0.00000000E+00  0.00000000E+00  0.00000000E+00
  0.00000000E+00  0.00000000E+00  0.00000000E+00
  0.00000000E+00  0.00000000E+00  0.00000000E+00
  0.00000000E+00  0.00000000E+00  0.00000000E+00
  0.00000000E+00  0.00000000E+00  0.00000000E+00
  0.00000000E+00  0.00000000E+00  0.00000000E+00
  0.00000000E+00  0.00000000E+00  0.00000000E+00
  0.00000000E+00  0.00000000E+00  0.00000000E+00
  0.00000000E+00  0.00000000E+00  0.00000000E+00
  0.00000000E+00  0.00000000E+00  0.00000000E+00
  0.00000000E+00  0.00000000E+00  0.00000000E+00
  0.00000000E+00  0.00000000E+00  0.00000000E+00
  0.00000000E+00  0.00000000E+00  0.00000000E+00
  0.00000000E+00  0.00000000E+00  0.00000000E+00
  0.00000000E+00  0.00000000E+00  0.00000000E+00
  0.00000000E+00  0.00000000E+00  0.00000000E+00
  0.00000000E+00  0.00000000E+00  0.00000000E+00
  0.00000000E+00  0.00000000E+00  0.00000000E+00
  0.00000000E+00  0.00000000E+00  0.00000000E+00
  0.00000000E+00  0.00000000E+00  0.00000000E+00
  0.00000000E+00  0.00000000E+00  0.00000000E+00
  0.00000000E+00  0.00000000E+00  0.00000000E+00
  0.00000000E+00  0.00000000E+00  0.00000000E+00
  0.00000000E+00  0.00000000E+00  0.00000000E+00
  0.00000000E+00  0.00000000E+00  0.00000000E+00
  0.00000000E+00  0.00000000E+00  0.00000000E+00
  0.00000000E+00  0.00000000E+00  0.00000000E+00
  0.00000000E+00  0.00000000E+00  0.00000000E+00
  0.00000000E+00  0.00000000E+00  0.00000000E+00
  0.00000000E+00  0.00000000E+00  0.00000000E+00
  0.00000000E+00  0.00000000E+00  0.00000000E+00
  0.00000000E+00  0.00000000E+00  0.00000000E+00
  0.00000000E+00  0.00000000E+00  0.00000000E+00
  0.00000000E+00  0.00000000E+00  0.00000000E+00
  0.00000000E+00  0.00000000E+00  0.00000000E+00
  0.00000000E+00  0.00000000E+00  0.00000000E+00
