10.36                                   
   1.00000000000000     
    10.3599996566999994    0.0000000000000000    0.0000000000000000
     5.1799998282999997    8.9720228858999995    0.0000000000000000
     0.0000000000000000    0.0000000000000000   22.0000000000000000
   Pt   Fe   Co   Cu   Ni   H 
    32    13    10    13    12     1
Selective dynamics
Direct
  0.7876703636892236  0.8798840745137425  0.3189380133214566   T   T   T
  0.0424931316531649  0.8854137188622145  0.3199543800456165   T   T   T
  0.2783421740751787  0.3812033992734151  0.3220619521824989   T   T   T
  0.8733314795981240  0.9663714940467552  0.4307834563619670   T   T   T
  0.1226208114393949  0.4662457981484859  0.4330846485218502   T   T   T
  0.1220480728444293  0.9664906196697128  0.4350995557627140   T   T   T
  0.8730598311580202  0.4650928890981989  0.4363395327713944   T   T   T
  0.3752051768308649  0.9655684710397991  0.4420402221375725   T   T   T
  0.8730124334185608  0.2164391406165921  0.4210490469446011   T   T   T
  0.1236941436081075  0.2164018165891387  0.4260559570794226   T   T   T
  0.6223108908837504  0.9655825627490661  0.4261174573021294   T   T   T
  0.8735512903684512  0.7150944931137759  0.4282418332577716   T   T   T
  0.3741354669729774  0.2147150869911881  0.4291501022840206   T   T   T
  0.3750041737210299  0.7171397642444282  0.4231552072223705   T   T   T
  0.6246116083178552  0.4664534141592749  0.4241376106884798   T   T   T
  0.1240005805950738  0.7148432050366904  0.4286835025051900   T   T   T
  0.6239462213690263  0.2150914275505028  0.4234257767087705   T   T   T
  0.5465252333897299  0.3768805412924355  0.3182554697385083   T   T   T
  0.5328777782467324  0.1249189384940962  0.3157243536040293   T   T   T
  0.5458014400089226  0.1234550493780731  0.0359400593772747   F   F   F
  0.1219383108401360  0.4607637042028472  0.1261476945818174   F   F   F
  0.0433164535712711  0.1375868234653898  0.3151355907099583   T   T   T
  0.0426177556592364  0.1297797889737780  0.0304909520954553   F   F   F
  0.1298428761067072  0.9585265795537836  0.1305436315363622   F   F   F
  0.3742212617156331  0.4663550310092458  0.4360050218640507   T   T   T
  0.4536142831861127  0.5450805790169824  0.2185534362818160   F   F   F
  0.6226386243335271  0.7160534151381166  0.4268287305127126   T   T   T
  0.9567679528542641  0.7907913211133391  0.2215395440363608   F   F   F
  0.7932346387773936  0.6219764319054215  0.3200600075114883   T   T   T
  0.2910961135471603  0.6317422847566516  0.3194997537521555   T   T   T
  0.2033968113129916  0.2831573253555248  0.2254814981590911   F   F   F
  0.7079943538448035  0.5476533912460155  0.2203153201272698   F   F   F
  0.0400403622460478  0.6313073691052723  0.3274239436704785   T   T   T
  0.7980538117324372  0.8624341141126948  0.0385159092227241   F   F   F
  0.0552849574256129  0.8673564735473107  0.0343513444545422   F   F   F
  0.0474090248444483  0.6263712164546362  0.0327916081590942   F   F   F
  0.6264571710535165  0.2185083723293815  0.1268634264227302   F   F   F
  0.3829453672912493  0.9548385219640068  0.1285988211636351   F   F   F
  0.0348226513812708  0.3842431594295115  0.3276343958128772   T   T   T
  0.0333104805050652  0.3830854889148227  0.0338960332000013   F   F   F
  0.8707331529917894  0.2156009995070320  0.1265163613454519   F   F   F
  0.9554721997300177  0.5448036240836771  0.2234071909181807   F   F   F
  0.2959395213546115  0.1130507647862537  0.3266245383002603   T   T   T
  0.5399670803553938  0.6323062138912339  0.3224465288693498   T   T   T
  0.2949796661070749  0.1207060839425580  0.0354777079681838   F   F   F
  0.5468395352815776  0.6255393754088701  0.0407606834636383   F   F   F
  0.2937150855157071  0.3805059751201867  0.0349060453818169   F   F   F
  0.6256401488194570  0.9526282026021207  0.1307260463590936   F   F   F
  0.7059268653305040  0.7956112008160545  0.2192326928636348   F   F   F
  0.8672931192344109  0.7077434861182965  0.1272654984636361   F   F   F
  0.6257430270251945  0.4611784098882126  0.1254728431772705   F   F   F
  0.2982386732055495  0.8766219605418343  0.3156406727757419   T   T   T
  0.3044523837364466  0.8674590556084283  0.0378147787681797   F   F   F
  0.6276506550672281  0.7130309952902323  0.1270004925727264   F   F   F
  0.2224885567561898  0.0301811762680160  0.2268316968727291   F   F   F
  0.5436321503495236  0.3798759509136147  0.0314790966954561   F   F   F
  0.3785322377896421  0.2050962626379231  0.1304079932181850   F   F   F
  0.1335856850995540  0.7058118501962269  0.1296243496818192   F   F   F
  0.7052232585528557  0.0495490680701067  0.2204402018590912   F   F   F
  0.7920687691276950  0.1306607385377484  0.3175165179669827   T   T   T
  0.5365904654624951  0.8744433171710025  0.3186231144038259   T   T   T
  0.7961477246739292  0.1230227477835157  0.0309807547499972   F   F   F
  0.5459767523362302  0.8695969387529416  0.0336065307954527   F   F   F
  0.2072282577882945  0.5419788292495227  0.2243820184272707   F   F   F
  0.9526128984599183  0.2947893967765651  0.2201704496772692   F   F   F
  0.8718774810604728  0.9624754198042567  0.1273033371999972   F   F   F
  0.7130345181012316  0.2886236761800518  0.2224983166227261   F   F   F
  0.4575250881556840  0.2905277095867049  0.2202344651227293   F   F   F
  0.8748423801886673  0.4570171218626697  0.1258167675954525   F   F   F
  0.1277806656162355  0.2080787861602431  0.1274778483136387   F   F   F
  0.7924830963535570  0.6234970774306987  0.0376528518590931   F   F   F
  0.2975240081599964  0.6248523074111176  0.0387144017045458   F   F   F
  0.3848216830637057  0.7097879868995918  0.1274289244681839   F   F   F
  0.3825565390611771  0.4518961651637952  0.1244171486045431   F   F   F
  0.7930074723988080  0.3782926608318926  0.3197171503642060   T   T   T
  0.7906424157987573  0.3775544735093703  0.0363354318318159   F   F   F
  0.9558869718144862  0.0511319708759288  0.2211004496863609   F   F   F
  0.4577502232223978  0.7969477794396838  0.2237495504727249   F   F   F
  0.2115698532229970  0.7984364491376823  0.2244089375772731   F   F   F
  0.4622948514299310  0.0319863000740881  0.2214779897681822   F   F   F
  0.2344985816767816 -0.0365438892249270  0.4917864238001656   T   T   T
 
  0.00000000E+00  0.00000000E+00  0.00000000E+00
  0.00000000E+00  0.00000000E+00  0.00000000E+00
  0.00000000E+00  0.00000000E+00  0.00000000E+00
  0.00000000E+00  0.00000000E+00  0.00000000E+00
  0.00000000E+00  0.00000000E+00  0.00000000E+00
  0.00000000E+00  0.00000000E+00  0.00000000E+00
  0.00000000E+00  0.00000000E+00  0.00000000E+00
  0.00000000E+00  0.00000000E+00  0.00000000E+00
  0.00000000E+00  0.00000000E+00  0.00000000E+00
  0.00000000E+00  0.00000000E+00  0.00000000E+00
  0.00000000E+00  0.00000000E+00  0.00000000E+00
  0.00000000E+00  0.00000000E+00  0.00000000E+00
  0.00000000E+00  0.00000000E+00  0.00000000E+00
  0.00000000E+00  0.00000000E+00  0.00000000E+00
  0.00000000E+00  0.00000000E+00  0.00000000E+00
  0.00000000E+00  0.00000000E+00  0.00000000E+00
  0.00000000E+00  0.00000000E+00  0.00000000E+00
  0.00000000E+00  0.00000000E+00  0.00000000E+00
  0.00000000E+00  0.00000000E+00  0.00000000E+00
  0.00000000E+00  0.00000000E+00  0.00000000E+00
  0.00000000E+00  0.00000000E+00  0.00000000E+00
  0.00000000E+00  0.00000000E+00  0.00000000E+00
  0.00000000E+00  0.00000000E+00  0.00000000E+00
  0.00000000E+00  0.00000000E+00  0.00000000E+00
  0.00000000E+00  0.00000000E+00  0.00000000E+00
  0.00000000E+00  0.00000000E+00  0.00000000E+00
  0.00000000E+00  0.00000000E+00  0.00000000E+00
  0.00000000E+00  0.00000000E+00  0.00000000E+00
  0.00000000E+00  0.00000000E+00  0.00000000E+00
  0.00000000E+00  0.00000000E+00  0.00000000E+00
  0.00000000E+00  0.00000000E+00  0.00000000E+00
  0.00000000E+00  0.00000000E+00  0.00000000E+00
  0.00000000E+00  0.00000000E+00  0.00000000E+00
  0.00000000E+00  0.00000000E+00  0.00000000E+00
  0.00000000E+00  0.00000000E+00  0.00000000E+00
  0.00000000E+00  0.00000000E+00  0.00000000E+00
  0.00000000E+00  0.00000000E+00  0.00000000E+00
  0.00000000E+00  0.00000000E+00  0.00000000E+00
  0.00000000E+00  0.00000000E+00  0.00000000E+00
  0.00000000E+00  0.00000000E+00  0.00000000E+00
  0.00000000E+00  0.00000000E+00  0.00000000E+00
  0.00000000E+00  0.00000000E+00  0.00000000E+00
  0.00000000E+00  0.00000000E+00  0.00000000E+00
  0.00000000E+00  0.00000000E+00  0.00000000E+00
  0.00000000E+00  0.00000000E+00  0.00000000E+00
  0.00000000E+00  0.00000000E+00  0.00000000E+00
  0.00000000E+00  0.00000000E+00  0.00000000E+00
  0.00000000E+00  0.00000000E+00  0.00000000E+00
  0.00000000E+00  0.00000000E+00  0.00000000E+00
  0.00000000E+00  0.00000000E+00  0.00000000E+00
  0.00000000E+00  0.00000000E+00  0.00000000E+00
  0.00000000E+00  0.00000000E+00  0.00000000E+00
  0.00000000E+00  0.00000000E+00  0.00000000E+00
  0.00000000E+00  0.00000000E+00  0.00000000E+00
  0.00000000E+00  0.00000000E+00  0.00000000E+00
  0.00000000E+00  0.00000000E+00  0.00000000E+00
  0.00000000E+00  0.00000000E+00  0.00000000E+00
  0.00000000E+00  0.00000000E+00  0.00000000E+00
  0.00000000E+00  0.00000000E+00  0.00000000E+00
  0.00000000E+00  0.00000000E+00  0.00000000E+00
  0.00000000E+00  0.00000000E+00  0.00000000E+00
  0.00000000E+00  0.00000000E+00  0.00000000E+00
  0.00000000E+00  0.00000000E+00  0.00000000E+00
  0.00000000E+00  0.00000000E+00  0.00000000E+00
  0.00000000E+00  0.00000000E+00  0.00000000E+00
  0.00000000E+00  0.00000000E+00  0.00000000E+00
  0.00000000E+00  0.00000000E+00  0.00000000E+00
  0.00000000E+00  0.00000000E+00  0.00000000E+00
  0.00000000E+00  0.00000000E+00  0.00000000E+00
  0.00000000E+00  0.00000000E+00  0.00000000E+00
  0.00000000E+00  0.00000000E+00  0.00000000E+00
  0.00000000E+00  0.00000000E+00  0.00000000E+00
  0.00000000E+00  0.00000000E+00  0.00000000E+00
  0.00000000E+00  0.00000000E+00  0.00000000E+00
  0.00000000E+00  0.00000000E+00  0.00000000E+00
  0.00000000E+00  0.00000000E+00  0.00000000E+00
  0.00000000E+00  0.00000000E+00  0.00000000E+00
  0.00000000E+00  0.00000000E+00  0.00000000E+00
  0.00000000E+00  0.00000000E+00  0.00000000E+00
  0.00000000E+00  0.00000000E+00  0.00000000E+00
  0.00000000E+00  0.00000000E+00  0.00000000E+00
