11.16                                   
   1.00000000000000     
    11.1599998474000000    0.0000000000000000    0.0000000000000000
     5.5799999237000000    9.6648433741000002    0.0000000000000000
     0.0000000000000000    0.0000000000000000   22.0000000000000000
   Pt   Fe   Co   Cu   Ni   H 
    32    13    10    13    12     1
Selective dynamics
Direct
  0.7837408207672611  0.8813331817099634  0.3070513522316505   T   T   T
  0.0378885055336321  0.8800277304953698  0.3019173306250257   T   T   T
  0.2767222516406621  0.3745298717993283  0.3139549623800458   T   T   T
  0.8749518650181439  0.9643175832356101  0.4081149256561591   T   T   T
  0.1130810068424130  0.4688103370643738  0.4149977520811798   T   T   T
  0.1239648499543498  0.9570235372854060  0.4083549383774051   T   T   T
  0.8748523814381228  0.4552940058755080  0.4169025536876381   T   T   T
  0.3673036920296276  0.9607352050594045  0.4132716930241412   T   T   T
  0.8710835692951990  0.2112845614018332  0.4089938820857255   T   T   T
  0.1258474976292893  0.2142659496639597  0.4131228164149577   T   T   T
  0.6230792146186657  0.9617473975737939  0.4144116420563440   T   T   T
  0.8753261014744818  0.7134702429201747  0.4136734470294937   T   T   T
  0.3740378544216211  0.2071878778135011  0.4149618514709603   T   T   T
  0.3729371973090905  0.7101015077699905  0.4117475496382901   T   T   T
  0.6249523398087710  0.4612609004028327  0.4137326427710823   T   T   T
  0.1193514567154234  0.7130349219848476  0.4126001330169663   T   T   T
  0.6253827958140884  0.2072510800793550  0.4114360255783716   T   T   T
  0.5419644747375582  0.3775127869821258  0.3139337227816341   T   T   T
  0.5309153190647302  0.1257627447791551  0.3106046215737117   T   T   T
  0.5479360330018892  0.1255909399993769  0.0556212010000010   F   F   F
  0.1050472610022197  0.4365478169989387  0.1244170880000013   F   F   F
  0.0482538365211925  0.1336053070246449  0.3106738869621725   T   T   T
  0.0252908159984528  0.1249324719980223  0.0404736890000024   F   F   F
  0.1302648480056590  0.9552854379970483  0.1381767990000000   F   F   F
  0.3691986136923546  0.4601881860598660  0.4141499351660554   T   T   T
  0.4550904889956513  0.5565127150030875  0.2215455449999979   F   F   F
  0.6211733330260178  0.7052760177314159  0.4176634038350989   T   T   T
  0.9509405679971650  0.7708154409997050  0.2115423250000035   F   F   F
  0.7954023504067572  0.6248329548617265  0.3162276525667018   T   T   T
  0.2785357801298400  0.6278516432957753  0.3114083461597394   T   T   T
  0.1908233009982538  0.2723671880037202  0.2256696439999999   F   F   F
  0.6991999430008917  0.5561380480002356  0.2216657290000015   F   F   F
  0.0362198427761234  0.6343010240294821  0.3156367038048117   T   T   T
  0.7946764739981020  0.8597211840045702  0.0603210109999992   F   F   F
  0.0472277110004455  0.8608318650042008  0.0526243289999968   F   F   F
  0.0485999499998186  0.6467734080048757  0.0614832309999969   F   F   F
  0.6256235380037083  0.2386853370000779  0.1339005230000012   F   F   F
  0.3812980910045098  0.9505843839973807  0.1357545959999982   F   F   F
  0.0310767873992352  0.3846788834519315  0.3201756875372989   T   T   T
  0.9912695609975515  0.3684184990045480  0.0440217040000022   F   F   F
  0.8635013100046720  0.2184212299970767  0.1330608560000002   F   F   F
  0.9518373099983606  0.5353226950024705  0.2223101310000004   F   F   F
  0.3000156003819822  0.1137916056671154  0.3188455616412327   T   T   T
  0.5398067007016820  0.6256228732977639  0.3196836288266799   T   T   T
  0.2807374070033362  0.1057206180017545  0.0521704009999979   F   F   F
  0.5389871579988039  0.6297256979983672  0.0482680530000010   F   F   F
  0.2984369150014814  0.4021714700019103  0.0563919000000013   F   F   F
  0.6229950689996713  0.9410554790027277  0.1384750280000020   F   F   F
  0.7030949789992391  0.7872524540014609  0.2202327469999972   F   F   F
  0.8492780659956765  0.6806581090004045  0.1312540879999986   F   F   F
  0.6167672719963306  0.4701632850023429  0.1300353250000015   F   F   F
  0.2982054007293466  0.8769101594204998  0.3173585682142648   T   T   T
  0.3010432329997101  0.8779877230023061  0.0477690259999974   F   F   F
  0.6085638729960010  0.7220527840007378  0.1306725419999992   F   F   F
  0.2344297509992543  0.0211869069962134  0.2284564759999981   F   F   F
  0.5345829480016135  0.3861113929999433  0.0411396889999978   F   F   F
  0.3654986089970507  0.2055446419984008  0.1382749189999970   F   F   F
  0.1632348660030445  0.7032863599957651  0.1453273950000025   F   F   F
  0.6943087199969469  0.0635364790024013  0.2192384980000028   F   F   F
  0.7881969400482237  0.1318573441379770  0.3113139154657272   T   T   T
  0.5415352583401760  0.8705273117361960  0.3177175080244511   T   T   T
  0.7846798790017004  0.1256469870018009  0.0427919030000012   F   F   F
  0.5372086529994675  0.8832323749990323  0.0436522959999976   F   F   F
  0.2017743049958654  0.5253248889998474  0.2194479380000018   F   F   F
  0.9396576839989592  0.3052585559954508  0.2247454689999984   F   F   F
  0.8650139610018002  0.9809937170019438  0.1369568650000019   F   F   F
  0.7110290679977993  0.3025694279988613  0.2258082520000002   F   F   F
  0.4534265499967844  0.2969096760005385  0.2215668939999986   F   F   F
  0.8590857100010396  0.4481114409992486  0.1318170369999976   F   F   F
  0.1134855920053752  0.1976785879965632  0.1337839910000014   F   F   F
  0.7711452319973731  0.6097180460049358  0.0462050280000028   F   F   F
  0.2956336770026624  0.6272833540010225  0.0522508780000024   F   F   F
  0.3842174690008733  0.7187581390005562  0.1329304850000028   F   F   F
  0.3925397009957408  0.4550135800011859  0.1351707090000005   F   F   F
  0.7868931910384983  0.3890361061961474  0.3182201217668766   T   T   T
  0.7750661889946855  0.3681197870039270  0.0452688499999994   F   F   F
  0.9449614759988236  0.0723766599958111  0.2217785010000028   F   F   F
  0.4633447139960225  0.7962897130049598  0.2274368460000034   F   F   F
  0.2354054279977760  0.7988368000033859  0.2276622600000024   F   F   F
  0.4587377860000856  0.0246024700035150  0.2248121169999990   F   F   F
  0.6239110092206014  0.8418846072729093  0.4619905964337276   T   T   T
 
  0.00000000E+00  0.00000000E+00  0.00000000E+00
  0.00000000E+00  0.00000000E+00  0.00000000E+00
  0.00000000E+00  0.00000000E+00  0.00000000E+00
  0.00000000E+00  0.00000000E+00  0.00000000E+00
  0.00000000E+00  0.00000000E+00  0.00000000E+00
  0.00000000E+00  0.00000000E+00  0.00000000E+00
  0.00000000E+00  0.00000000E+00  0.00000000E+00
  0.00000000E+00  0.00000000E+00  0.00000000E+00
  0.00000000E+00  0.00000000E+00  0.00000000E+00
  0.00000000E+00  0.00000000E+00  0.00000000E+00
  0.00000000E+00  0.00000000E+00  0.00000000E+00
  0.00000000E+00  0.00000000E+00  0.00000000E+00
  0.00000000E+00  0.00000000E+00  0.00000000E+00
  0.00000000E+00  0.00000000E+00  0.00000000E+00
  0.00000000E+00  0.00000000E+00  0.00000000E+00
  0.00000000E+00  0.00000000E+00  0.00000000E+00
  0.00000000E+00  0.00000000E+00  0.00000000E+00
  0.00000000E+00  0.00000000E+00  0.00000000E+00
  0.00000000E+00  0.00000000E+00  0.00000000E+00
  0.00000000E+00  0.00000000E+00  0.00000000E+00
  0.00000000E+00  0.00000000E+00  0.00000000E+00
  0.00000000E+00  0.00000000E+00  0.00000000E+00
  0.00000000E+00  0.00000000E+00  0.00000000E+00
  0.00000000E+00  0.00000000E+00  0.00000000E+00
  0.00000000E+00  0.00000000E+00  0.00000000E+00
  0.00000000E+00  0.00000000E+00  0.00000000E+00
  0.00000000E+00  0.00000000E+00  0.00000000E+00
  0.00000000E+00  0.00000000E+00  0.00000000E+00
  0.00000000E+00  0.00000000E+00  0.00000000E+00
  0.00000000E+00  0.00000000E+00  0.00000000E+00
  0.00000000E+00  0.00000000E+00  0.00000000E+00
  0.00000000E+00  0.00000000E+00  0.00000000E+00
  0.00000000E+00  0.00000000E+00  0.00000000E+00
  0.00000000E+00  0.00000000E+00  0.00000000E+00
  0.00000000E+00  0.00000000E+00  0.00000000E+00
  0.00000000E+00  0.00000000E+00  0.00000000E+00
  0.00000000E+00  0.00000000E+00  0.00000000E+00
  0.00000000E+00  0.00000000E+00  0.00000000E+00
  0.00000000E+00  0.00000000E+00  0.00000000E+00
  0.00000000E+00  0.00000000E+00  0.00000000E+00
  0.00000000E+00  0.00000000E+00  0.00000000E+00
  0.00000000E+00  0.00000000E+00  0.00000000E+00
  0.00000000E+00  0.00000000E+00  0.00000000E+00
  0.00000000E+00  0.00000000E+00  0.00000000E+00
  0.00000000E+00  0.00000000E+00  0.00000000E+00
  0.00000000E+00  0.00000000E+00  0.00000000E+00
  0.00000000E+00  0.00000000E+00  0.00000000E+00
  0.00000000E+00  0.00000000E+00  0.00000000E+00
  0.00000000E+00  0.00000000E+00  0.00000000E+00
  0.00000000E+00  0.00000000E+00  0.00000000E+00
  0.00000000E+00  0.00000000E+00  0.00000000E+00
  0.00000000E+00  0.00000000E+00  0.00000000E+00
  0.00000000E+00  0.00000000E+00  0.00000000E+00
  0.00000000E+00  0.00000000E+00  0.00000000E+00
  0.00000000E+00  0.00000000E+00  0.00000000E+00
  0.00000000E+00  0.00000000E+00  0.00000000E+00
  0.00000000E+00  0.00000000E+00  0.00000000E+00
  0.00000000E+00  0.00000000E+00  0.00000000E+00
  0.00000000E+00  0.00000000E+00  0.00000000E+00
  0.00000000E+00  0.00000000E+00  0.00000000E+00
  0.00000000E+00  0.00000000E+00  0.00000000E+00
  0.00000000E+00  0.00000000E+00  0.00000000E+00
  0.00000000E+00  0.00000000E+00  0.00000000E+00
  0.00000000E+00  0.00000000E+00  0.00000000E+00
  0.00000000E+00  0.00000000E+00  0.00000000E+00
  0.00000000E+00  0.00000000E+00  0.00000000E+00
  0.00000000E+00  0.00000000E+00  0.00000000E+00
  0.00000000E+00  0.00000000E+00  0.00000000E+00
  0.00000000E+00  0.00000000E+00  0.00000000E+00
  0.00000000E+00  0.00000000E+00  0.00000000E+00
  0.00000000E+00  0.00000000E+00  0.00000000E+00
  0.00000000E+00  0.00000000E+00  0.00000000E+00
  0.00000000E+00  0.00000000E+00  0.00000000E+00
  0.00000000E+00  0.00000000E+00  0.00000000E+00
  0.00000000E+00  0.00000000E+00  0.00000000E+00
  0.00000000E+00  0.00000000E+00  0.00000000E+00
  0.00000000E+00  0.00000000E+00  0.00000000E+00
  0.00000000E+00  0.00000000E+00  0.00000000E+00
  0.00000000E+00  0.00000000E+00  0.00000000E+00
  0.00000000E+00  0.00000000E+00  0.00000000E+00
  0.00000000E+00  0.00000000E+00  0.00000000E+00
