Pt111                                   
   1.00000000000000     
    11.2227001190000006    0.0000000000000000    0.0000000000000000
     5.6113500595000003    9.7191434021000003    0.0000000000000000
     0.0000000000000000    0.0000000000000000   22.0000000000000000
   Pt   H 
    80    17
Direct
  0.7849835715730350  0.8688251466043613  0.3262254592911307
  0.0349826053718747  0.8687413589609596  0.3262359690750654
  0.0349372491205314  0.6188537263732555  0.3262141675150848
  0.7856648326142404  0.8685861632232639  0.0212474641958835
  0.0356362628555311  0.8685415778354058  0.0212568919071487
  0.0357097340985463  0.6185471806599542  0.0211790951191169
  0.6189500240759468  0.2020057857187885  0.1246415784700180
  0.3689137132344568  0.9516548080029471  0.1245529668926500
  0.0355133436885264  0.3684853684383652  0.3256948647857019
  0.0357299200419094  0.3684660821476659  0.0210497210827448
  0.8685819896068120  0.2019556454808218  0.1246221372360733
  0.9518848188863043  0.5353790399180668  0.2246724703591051
  0.2847457211133811  0.1192014176149591  0.3256997352448731
  0.5349518666730856  0.6186644504175548  0.3270462070041534
  0.2847058143135888  0.3684317535898511  0.3257008694291115
  0.2857214736645002  0.1185215055311304  0.0210940557598737
  0.5357381901606801  0.6185013641045157  0.0212804855339969
  0.2856488258402667  0.3685164254869953  0.0210338483930880
  0.6190039737116808  0.9517526058626111  0.1246487302564156
  0.7018893371733845  0.7852810565961722  0.2248324971141312
  0.8685749021175541  0.7022058373856079  0.1246128793210011
  0.6186927394875082  0.4521300858426364  0.1247201537520263
  0.2848247333393897  0.8685280716297152  0.3263196445196900
  0.2856500808669869  0.8684516541683516  0.0213400939838063
  0.6186341140874713  0.7018961048028834  0.1246974538293984
  0.2018969163210763  0.0353768674059279  0.2246779570902332
  0.8680568992054883  0.9520410710315560  0.4320912936091712
  0.1181518936229437  0.4518507205954155  0.4319824971608953
  0.1174229046560300  0.9524984735303027  0.4323172295055507
  0.8693787484984037  0.4514461120529416  0.4311722927008460
  0.3673169077352973  0.9535187250268177  0.4311935155904292
  0.8684365712450156  0.2015546440455714  0.4322223678603238
  0.1181680712912614  0.2022088905280212  0.4319030226938210
  0.6182254611709707  0.9524600276675723  0.4323036721261936
  0.8684203502656169  0.7022279721059026  0.4322144363400884
  0.3678750631280473  0.2022042973962060  0.4319043716909085
  0.3659395404860790  0.7031645528434031  0.4344232666223136
  0.6189319157098162  0.4501454476198641  0.4344104994916441
  0.1174457834874279  0.7022336769526196  0.4322672720950361
  0.6182344362128227  0.2014962396001734  0.4322398529206954
  0.5352819485593372  0.3686008412782871  0.3263017338835446
  0.5357440572628078  0.3685358433446780  0.0213486918050405
  0.5352172505469405  0.1185685279185720  0.3262153462655640
  0.5357544478507414  0.1185025213931408  0.0211991766686925
  0.8685744987503919  0.4520075230399733  0.1245512337056640
  0.1184382932418799  0.4526498457556049  0.1241703284811135
  0.0348935507836632  0.1185578938550269  0.3262136637128094
  0.0356763809029917  0.1184494307197977  0.0211844599494189
  0.1187710771524701  0.9517039543141786  0.1246626563858585
  0.3673581018067780  0.4514494094494374  0.4311724798092262
  0.4519420798139218  0.5354635253039273  0.2249713992055340
  0.6188929337189862  0.7030956669454872  0.4344188627953103
  0.3694458072296486  0.2016417733551440  0.1241795441595190
  0.1184058987241753  0.2015953478360597  0.1241720177114276
  0.9519491748540440  0.7852597875069983  0.2248346953417282
  0.7847771275641009  0.6190892682012050  0.3263113343153676
  0.2848028698836489  0.6190174036057104  0.3263045103198299
  0.7856564697650718  0.6185765159915790  0.0214043126219167
  0.2857482344181935  0.6185769541187712  0.0214085693045482
  0.3689843160678660  0.7018539562154796  0.1247073582339874
  0.3689523333706126  0.4520122090083658  0.1245648365557152
  0.2018508475569301  0.2853521314540683  0.2233712084997615
  0.7847387149439755  0.3686486249410190  0.3263030959635056
  0.7855645175491179  0.3685671894900923  0.0213347493067563
  0.9518748351593890  0.0354056891858119  0.2248328946113406
  0.4519972513880774  0.7852009918928475  0.2249920110995469
  0.7017680479617860  0.5354962403716070  0.2249635235914572
  0.2020322287307196  0.7852502144270894  0.2248380461491540
  0.4518508516114469  0.0353929366804278  0.2246745854908308
  0.1187385563671008  0.7022177039947849  0.1246289237365123
  0.7018131851762953  0.0354304987069441  0.2248249124487965
  0.7849938795266415  0.1187181140783573  0.3262397109356853
  0.5353328818225436  0.8685477227076011  0.3263201845315060
  0.7857369531233804  0.1184699097660498  0.0213156547378711
  0.5357219213333184  0.8684663685301668  0.0213487057071607
  0.2019070018845521  0.5353181470957196  0.2246692787744574
  0.9519108701433040  0.2853180079591868  0.2246995307757237
  0.8687944945645121  0.9519022564488316  0.1247256395527777
  0.7018613288197416  0.2854307497356506  0.2248263858044994
  0.4518527224360908  0.2853323236656480  0.2247106741666374
  0.4375408346305676  0.5216480202583814  0.4764847533510421
  0.5345548190476656  0.6186334973160682  0.4706718306131693
  0.7284401788703756  0.5219244753205632  0.4762538344891222
  0.1965581209550675  0.7878190435470063  0.4739650112634413
  0.4379713564915191  0.8124380585304296  0.4762304637011118
  0.7037496960096680  0.7877438701777021  0.4739020704188729
  0.9511852962332416  0.7858851921211626  0.4731717981728200
  0.2003419048310099  0.5356271281456804  0.4728370320635187
  0.9519227232476513  0.5357526050257958  0.4728256607717206
  0.2013913551147994  0.2853569621502742  0.4728477940895521
  0.4516896986296546  0.2842923804542248  0.4728009663789930
  0.7038103248366593  0.2805771186874978  0.4739214292838796
  0.9520496038392736  0.2844793010321587  0.4728009174812443
  0.2004761593272807  0.0360232217421427  0.4728387658403269
  0.4517136955615551  0.0359691553180844  0.4728145531330650
  0.7019470864911205  0.0351566150241073  0.4732008825339933
  0.9511110319123107  0.0352300140450804  0.4732223677288954
 
  0.00000000E+00  0.00000000E+00  0.00000000E+00
  0.00000000E+00  0.00000000E+00  0.00000000E+00
  0.00000000E+00  0.00000000E+00  0.00000000E+00
  0.00000000E+00  0.00000000E+00  0.00000000E+00
  0.00000000E+00  0.00000000E+00  0.00000000E+00
  0.00000000E+00  0.00000000E+00  0.00000000E+00
  0.00000000E+00  0.00000000E+00  0.00000000E+00
  0.00000000E+00  0.00000000E+00  0.00000000E+00
  0.00000000E+00  0.00000000E+00  0.00000000E+00
  0.00000000E+00  0.00000000E+00  0.00000000E+00
  0.00000000E+00  0.00000000E+00  0.00000000E+00
  0.00000000E+00  0.00000000E+00  0.00000000E+00
  0.00000000E+00  0.00000000E+00  0.00000000E+00
  0.00000000E+00  0.00000000E+00  0.00000000E+00
  0.00000000E+00  0.00000000E+00  0.00000000E+00
  0.00000000E+00  0.00000000E+00  0.00000000E+00
  0.00000000E+00  0.00000000E+00  0.00000000E+00
  0.00000000E+00  0.00000000E+00  0.00000000E+00
  0.00000000E+00  0.00000000E+00  0.00000000E+00
  0.00000000E+00  0.00000000E+00  0.00000000E+00
  0.00000000E+00  0.00000000E+00  0.00000000E+00
  0.00000000E+00  0.00000000E+00  0.00000000E+00
  0.00000000E+00  0.00000000E+00  0.00000000E+00
  0.00000000E+00  0.00000000E+00  0.00000000E+00
  0.00000000E+00  0.00000000E+00  0.00000000E+00
  0.00000000E+00  0.00000000E+00  0.00000000E+00
  0.00000000E+00  0.00000000E+00  0.00000000E+00
  0.00000000E+00  0.00000000E+00  0.00000000E+00
  0.00000000E+00  0.00000000E+00  0.00000000E+00
  0.00000000E+00  0.00000000E+00  0.00000000E+00
  0.00000000E+00  0.00000000E+00  0.00000000E+00
  0.00000000E+00  0.00000000E+00  0.00000000E+00
  0.00000000E+00  0.00000000E+00  0.00000000E+00
  0.00000000E+00  0.00000000E+00  0.00000000E+00
  0.00000000E+00  0.00000000E+00  0.00000000E+00
  0.00000000E+00  0.00000000E+00  0.00000000E+00
  0.00000000E+00  0.00000000E+00  0.00000000E+00
  0.00000000E+00  0.00000000E+00  0.00000000E+00
  0.00000000E+00  0.00000000E+00  0.00000000E+00
  0.00000000E+00  0.00000000E+00  0.00000000E+00
  0.00000000E+00  0.00000000E+00  0.00000000E+00
  0.00000000E+00  0.00000000E+00  0.00000000E+00
  0.00000000E+00  0.00000000E+00  0.00000000E+00
  0.00000000E+00  0.00000000E+00  0.00000000E+00
  0.00000000E+00  0.00000000E+00  0.00000000E+00
  0.00000000E+00  0.00000000E+00  0.00000000E+00
  0.00000000E+00  0.00000000E+00  0.00000000E+00
  0.00000000E+00  0.00000000E+00  0.00000000E+00
  0.00000000E+00  0.00000000E+00  0.00000000E+00
  0.00000000E+00  0.00000000E+00  0.00000000E+00
  0.00000000E+00  0.00000000E+00  0.00000000E+00
  0.00000000E+00  0.00000000E+00  0.00000000E+00
  0.00000000E+00  0.00000000E+00  0.00000000E+00
  0.00000000E+00  0.00000000E+00  0.00000000E+00
  0.00000000E+00  0.00000000E+00  0.00000000E+00
  0.00000000E+00  0.00000000E+00  0.00000000E+00
  0.00000000E+00  0.00000000E+00  0.00000000E+00
  0.00000000E+00  0.00000000E+00  0.00000000E+00
  0.00000000E+00  0.00000000E+00  0.00000000E+00
  0.00000000E+00  0.00000000E+00  0.00000000E+00
  0.00000000E+00  0.00000000E+00  0.00000000E+00
  0.00000000E+00  0.00000000E+00  0.00000000E+00
  0.00000000E+00  0.00000000E+00  0.00000000E+00
  0.00000000E+00  0.00000000E+00  0.00000000E+00
  0.00000000E+00  0.00000000E+00  0.00000000E+00
  0.00000000E+00  0.00000000E+00  0.00000000E+00
  0.00000000E+00  0.00000000E+00  0.00000000E+00
  0.00000000E+00  0.00000000E+00  0.00000000E+00
  0.00000000E+00  0.00000000E+00  0.00000000E+00
  0.00000000E+00  0.00000000E+00  0.00000000E+00
  0.00000000E+00  0.00000000E+00  0.00000000E+00
  0.00000000E+00  0.00000000E+00  0.00000000E+00
  0.00000000E+00  0.00000000E+00  0.00000000E+00
  0.00000000E+00  0.00000000E+00  0.00000000E+00
  0.00000000E+00  0.00000000E+00  0.00000000E+00
  0.00000000E+00  0.00000000E+00  0.00000000E+00
  0.00000000E+00  0.00000000E+00  0.00000000E+00
  0.00000000E+00  0.00000000E+00  0.00000000E+00
  0.00000000E+00  0.00000000E+00  0.00000000E+00
  0.00000000E+00  0.00000000E+00  0.00000000E+00
  0.00000000E+00  0.00000000E+00  0.00000000E+00
  0.00000000E+00  0.00000000E+00  0.00000000E+00
  0.00000000E+00  0.00000000E+00  0.00000000E+00
  0.00000000E+00  0.00000000E+00  0.00000000E+00
  0.00000000E+00  0.00000000E+00  0.00000000E+00
  0.00000000E+00  0.00000000E+00  0.00000000E+00
  0.00000000E+00  0.00000000E+00  0.00000000E+00
  0.00000000E+00  0.00000000E+00  0.00000000E+00
  0.00000000E+00  0.00000000E+00  0.00000000E+00
  0.00000000E+00  0.00000000E+00  0.00000000E+00
  0.00000000E+00  0.00000000E+00  0.00000000E+00
  0.00000000E+00  0.00000000E+00  0.00000000E+00
  0.00000000E+00  0.00000000E+00  0.00000000E+00
  0.00000000E+00  0.00000000E+00  0.00000000E+00
  0.00000000E+00  0.00000000E+00  0.00000000E+00
  0.00000000E+00  0.00000000E+00  0.00000000E+00
  0.00000000E+00  0.00000000E+00  0.00000000E+00
