Pt   H                                  
   1.00000000000000     
    11.2227001190000006    0.0000000000000000    0.0000000000000000
     5.6113500595000003    9.7191434021000003    0.0000000000000000
     0.0000000000000000    0.0000000000000000   22.0000000000000000
   Pt   H 
    80    17
Direct
  0.7865708881860509  0.8735009539338418  0.3375271515539431
  0.0383437025471212  0.8721878521560277  0.3378908033150094
  0.0368900835400182  0.6238840245116154  0.3382254582631329
  0.7834286445866159  0.8729619005989268  0.0339789606247644
  0.0341462183392294  0.8727573643055343  0.0338583815638756
  0.0347132824396973  0.6219412868971237  0.0341363935168493
  0.6177613125119557  0.2068778904820086  0.1372662096120811
  0.3682645980787685  0.9558941272628865  0.1372153895047278
  0.0345154273408927  0.3740841761327392  0.3384590641975684
  0.0338106902077286  0.3724851079341789  0.0339951901934300
  0.8676365950648558  0.2067745670816842  0.1369374142035902
  0.9518569617640043  0.5405075012023920  0.2373528878578286
  0.2867342966786897  0.1230387626631182  0.3381436890302972
  0.5385470643773247  0.6184991428833644  0.3430862415266794
  0.2893766610614057  0.3747042063846225  0.3401467150007493
  0.2832882572300260  0.1226877508111274  0.0343013785357361
  0.5334035286164750  0.6221831281664898  0.0340723537285265
  0.2837045692375849  0.3726179550671931  0.0341311233991424
  0.6175622506134562  0.9568033214736409  0.1369826621571480
  0.7022475380524329  0.7897851638847642  0.2371746977404916
  0.8682104076391789  0.7063884844217421  0.1369379502204160
  0.6178241686325272  0.4569007132338804  0.1378714714460825
  0.2889583046413419  0.8692501280588012  0.3389904473326323
  0.2839793889045495  0.8725606401906814  0.0335949354593328
  0.6180922590637190  0.7063302758957702  0.1374505194595565
  0.2029484241424238  0.0388895359408468  0.2374742067796360
  0.8714151447885822  0.9563563884298454  0.4421638438793289
  0.1198217515413961  0.4571528392228859  0.4421240715556193
  0.1232435480472931  0.9545762290530867  0.4428228659209085
  0.8659037029739958  0.4566140051505440  0.4450903043947109
  0.3722367883568147  0.9531309849562544  0.4433088214404957
  0.8697318197332194  0.2069987134823712  0.4434051920442973
  0.1208919142047121  0.2067710788464614  0.4430694246706112
  0.6205150128669562  0.9551276645840570  0.4425565211310777
  0.8697854890754213  0.7059361993939963  0.4429975959427734
  0.3705862101555906  0.2058061558279842  0.4431646298851274
  0.3770307827617761  0.6959005361121878  0.4476595589168525
  0.6170903727241979  0.4498139834465092  0.4724521133282707
  0.1235279758315168  0.7057480865681146  0.4443832511358846
  0.6200968621498073  0.2073946689802228  0.4440845050581460
  0.5338455070339435  0.3785526031271804  0.3452486337852003
  0.5335831945629453  0.3728840761276082  0.0340494826282861
  0.5369991091862424  0.1242591836239653  0.3383582729074783
  0.5333366579479943  0.1232279543803018  0.0337592531586999
  0.8679503830977181  0.4564357715596373  0.1374803817404951
  0.1181577720150241  0.4562657435564942  0.1375265297128976
  0.0358243952441529  0.1237257075581439  0.3382054668582728
  0.0339931395877839  0.1228693281879315  0.0340782147006191
  0.1187887063075615  0.9561244129044452  0.1370194760026772
  0.3714186506508493  0.4564421587172020  0.4638331091251027
  0.4530763802617172  0.5391551149218098  0.2397691316382787
  0.6203173436404297  0.7009407279288100  0.4473402472730023
  0.3682778611570883  0.2065316426868945  0.1372674905161171
  0.1178396704206187  0.2066831917106684  0.1374818740676738
  0.9526092883110291  0.7902228460769983  0.2366796282749524
  0.7851744561672820  0.6228044533979612  0.3392053033768043
  0.2895678512558283  0.6200811073356729  0.3420957737709142
  0.7834532974544993  0.6219888830528653  0.0340553775442749
  0.2849859432194664  0.6220195093269835  0.0340587244195089
  0.3686811382633533  0.7062864594759014  0.1376976299184030
  0.3682221526805385  0.4566677310774831  0.1378246435457497
  0.2024465342694491  0.2906841252758953  0.2378732660704861
  0.7813109112236835  0.3751203044886720  0.3409962092230939
  0.7836482189791643  0.3728911282628142  0.0339148955712706
  0.9521100347654702  0.0406568197655443  0.2369588269658902
  0.4535105128775607  0.7880804611477901  0.2381928150304372
  0.7011818619439032  0.5400428433825597  0.2385734842533863
  0.2035890472545941  0.7885117206214198  0.2376990638809077
  0.4529319225747516  0.0397783726138792  0.2375063948106446
  0.1186581248284385  0.7062562809325850  0.1371049262075680
  0.7022622099121636  0.0404408160587472  0.2367404272766422
  0.7850907230733962  0.1251112400698204  0.3382763520440039
  0.5379015225775916  0.8698162529842445  0.3390026246383645
  0.7832232037907576  0.1235720094328407  0.0336093159381475
  0.5333435953148977  0.8728863573139690  0.0338873277258478
  0.2032772950374815  0.5402200895655644  0.2381644387020890
  0.9507093231176081  0.2905278380515675  0.2376473145492049
  0.8683762340742099  0.9569878067723334  0.1366488449939159
  0.7002955071879575  0.2916759982644037  0.2384877914245377
  0.4527314457420157  0.2912482294973121  0.2384286262761754
  0.3574598290477050  0.4597694594500472  0.5321534303922302
  0.6200756141585149  0.4134111891939298  0.5417785278919578
  0.6992209192245760  0.5499490657644750  0.4945991695895667
  0.2078709037022230  0.7913354193253158  0.4846463512281339
  0.4518664181627613  0.7890991542779502  0.4860035497726223
  0.7041925675059192  0.7908726529323939  0.4838107930256941
  0.9529756965167588  0.7914337255718770  0.4829375022475826
  0.1853481590226506  0.5486056763037939  0.4869941955548674
  0.9521794067438356  0.5407269569725234  0.4828399846908540
  0.2032933786664773  0.2905932054145652  0.4833419886200797
  0.4593298200832617  0.2736832554864869  0.4880335292680287
  0.7363253612951842  0.2706898333908245  0.4949303686329801
  0.9581208777495299  0.2895702967819347  0.4843674898426201
  0.2046196833044586  0.0403788222880576  0.4835512561427512
  0.4552523180039763  0.0381150049881766  0.4831503991809077
  0.7061249294312792  0.0368020750421201  0.4826497057249540
  0.9562453160411237  0.0382401553715321  0.4828557746714504
 
             NaN             NaN             NaN
             NaN             NaN             NaN
             NaN             NaN             NaN
             NaN             NaN             NaN
             NaN             NaN             NaN
             NaN             NaN             NaN
             NaN             NaN             NaN
             NaN             NaN             NaN
             NaN             NaN             NaN
             NaN             NaN             NaN
             NaN             NaN             NaN
             NaN             NaN             NaN
             NaN             NaN             NaN
             NaN             NaN             NaN
             NaN             NaN             NaN
             NaN             NaN             NaN
             NaN             NaN             NaN
             NaN             NaN             NaN
             NaN             NaN             NaN
             NaN             NaN             NaN
             NaN             NaN             NaN
             NaN             NaN             NaN
             NaN             NaN             NaN
             NaN             NaN             NaN
             NaN             NaN             NaN
             NaN             NaN             NaN
             NaN             NaN             NaN
             NaN             NaN             NaN
             NaN             NaN             NaN
             NaN             NaN             NaN
             NaN             NaN             NaN
             NaN             NaN             NaN
             NaN             NaN             NaN
             NaN             NaN             NaN
             NaN             NaN             NaN
             NaN             NaN             NaN
             NaN             NaN             NaN
             NaN             NaN             NaN
             NaN             NaN             NaN
             NaN             NaN             NaN
             NaN             NaN             NaN
             NaN             NaN             NaN
             NaN             NaN             NaN
             NaN             NaN             NaN
             NaN             NaN             NaN
             NaN             NaN             NaN
             NaN             NaN             NaN
             NaN             NaN             NaN
             NaN             NaN             NaN
             NaN             NaN             NaN
             NaN             NaN             NaN
             NaN             NaN             NaN
             NaN             NaN             NaN
             NaN             NaN             NaN
             NaN             NaN             NaN
             NaN             NaN             NaN
             NaN             NaN             NaN
             NaN             NaN             NaN
             NaN             NaN             NaN
             NaN             NaN             NaN
             NaN             NaN             NaN
             NaN             NaN             NaN
             NaN             NaN             NaN
             NaN             NaN             NaN
             NaN             NaN             NaN
             NaN             NaN             NaN
             NaN             NaN             NaN
             NaN             NaN             NaN
             NaN             NaN             NaN
             NaN             NaN             NaN
             NaN             NaN             NaN
             NaN             NaN             NaN
             NaN             NaN             NaN
             NaN             NaN             NaN
             NaN             NaN             NaN
             NaN             NaN             NaN
             NaN             NaN             NaN
             NaN             NaN             NaN
             NaN             NaN             NaN
             NaN             NaN             NaN
             NaN             NaN             NaN
             NaN             NaN             NaN
             NaN             NaN             NaN
             NaN             NaN             NaN
             NaN             NaN             NaN
             NaN             NaN             NaN
             NaN             NaN             NaN
             NaN             NaN             NaN
             NaN             NaN             NaN
             NaN             NaN             NaN
             NaN             NaN             NaN
             NaN             NaN             NaN
             NaN             NaN             NaN
             NaN             NaN             NaN
             NaN             NaN             NaN
             NaN             NaN             NaN
             NaN             NaN             NaN
