11.06                                   
   1.00000000000000     
    11.0600004195999997    0.0000000000000000    0.0000000000000000
     5.5300002097999998    9.5782413293000008    0.0000000000000000
     0.0000000000000000    0.0000000000000000   22.0000000000000000
   Pt   Fe   Co   Cu   Ni   H 
    32    13    10    13    12     1
Selective dynamics
Direct
  0.7891007489238433  0.8793961586072925  0.3113891639727271   F   F   F
  0.0429518841474206  0.8808749115550469  0.3063447229090883   F   F   F
  0.2800871552947726  0.3778287258674098  0.3146108723272718   F   F   F
  0.8764250559738329  0.9662961327762218  0.4141172725863669   F   F   F
  0.1205011179433697  0.4631844396036158  0.4173603085727251   F   F   F
  0.1278366703038571  0.9601479448390648  0.4115371415409115   F   F   F
  0.8769240341663220  0.4577354210723783  0.4180445744772712   F   F   F
  0.3751411171308376  0.9581839692037448  0.4141104862863614   F   F   F
  0.8738814657569520  0.2110488365767367  0.4110870591727291   F   F   F
  0.1285508749870061  0.2112537297437100  0.4144463333181818   F   F   F
  0.6220205462171791  0.9600650530771304  0.4133591292772749   F   F   F
  0.8744571553385185  0.7088870384826933  0.4199029172227284   F   F   F
  0.3771162702343673  0.2069174610413427  0.4162638822090940   F   F   F
  0.3770424199878235  0.7119005506095704  0.4149979308136338   F   F   F
  0.6272288740312391  0.4616589939192082  0.4154395360772725   F   F   F
  0.1269371850940075  0.7094533482376377  0.4149552407045434   F   F   F
  0.6259292157526133  0.2105929174419146  0.4136004148772727   F   F   F
  0.5473567132646480  0.3772732609530181  0.3144644552772746   F   F   F
  0.5347667749737468  0.1259625684946286  0.3110215664818199   F   F   F
  0.5517907035671499  0.1237414160858918  0.0522380319954578   F   F   F
  0.1166403069998836  0.4478305367060003  0.1269050428999989   F   F   F
  0.0480951702990566  0.1347514449079270  0.3110710681181814   F   F   F
  0.0318634206626527  0.1321532286754916  0.0391436539772698   F   F   F
  0.1322902336844294  0.9574246671199944  0.1357499056681846   F   F   F
  0.3729965182825339  0.4601040667370668  0.4166595293772701   F   F   F
  0.4583302334576800  0.5505736616875794  0.2196229883772745   F   F   F
  0.6221473171778271  0.7097825145836936  0.4161413156090887   F   F   F
  0.9547310550067607  0.7790527017495137  0.2153140473863644   F   F   F
  0.7998933851523233  0.6240660440779351  0.3167183517909109   F   F   F
  0.2886110085605011  0.6303997007706741  0.3137461312863650   F   F   F
  0.1973038588486915  0.2737670855169014  0.2256946547136351   F   F   F
  0.7039440396782410  0.5536854017216086  0.2217252195590902   F   F   F
  0.0414996675475052  0.6333098514905871  0.3188597649227276   F   F   F
  0.7942667551087155  0.8599541229665348  0.0553496235818187   F   F   F
  0.0504003372988748  0.8628103274157084  0.0484924134499991   F   F   F
  0.0458392209568999  0.6458845459631064  0.0531647909772701   F   F   F
  0.6274855346454800  0.2338042520028765  0.1340709094590906   F   F   F
  0.3830354864116359  0.9521874920608795  0.1342572065863621   F   F   F
  0.0357389971953097  0.3840753123589167  0.3208565745272693   F   F   F
  0.0087826589867177  0.3763095084036081  0.0435932914227237   F   F   F
  0.8682239942029994  0.2198895605560978  0.1320713060818193   F   F   F
  0.9576874342144350  0.5384780366853548  0.2234689155318179   F   F   F
  0.3010395038828406  0.1143660337152994  0.3189128009727256   F   F   F
  0.5427501281846077  0.6260512585704774  0.3199269221636385   F   F   F
  0.2911501622544819  0.1122415390507356  0.0494274354681821   F   F   F
  0.5501148902293878  0.6255569737600126  0.0488264706954524   F   F   F
  0.3085145004429961  0.3835596446251230  0.0505624604727259   F   F   F
  0.6245341976642393  0.9433204780778155  0.1374917836227283   F   F   F
  0.7074861992497574  0.7893700323013846  0.2208180135954549   F   F   F
  0.8571241580711089  0.6893234213678454  0.1325387087818157   F   F   F
  0.6277723694778672  0.4599996828668367  0.1303307695227289   F   F   F
  0.2981153117099211  0.8743790422340538  0.3171304912454573   F   F   F
  0.3052197422800944  0.8770331463671681  0.0463809798954529   F   F   F
  0.6182318874293458  0.7191778517970846  0.1308751241863604   F   F   F
  0.2334164172359081  0.0220315628041732  0.2282939212136341   F   F   F
  0.5422124353392448  0.3830619451481425  0.0408535510409109   F   F   F
  0.3754399652261782  0.2045931610018457  0.1386052775909121   F   F   F
  0.1558647781371434  0.7043630098421261  0.1400214925545455   F   F   F
  0.7020978323690130  0.0565474128996044  0.2199129117681835   F   F   F
  0.7927650565819917  0.1295536520576164  0.3129674314545454   F   F   F
  0.5423975719787606  0.8704685725859989  0.3160758723227275   F   F   F
  0.7897065490966995  0.1294421438106141  0.0418056654227286   F   F   F
  0.5441043329389430  0.8775533958188859  0.0423234264090908   F   F   F
  0.2084291012041177  0.5357474079612743  0.2217233592454519   F   F   F
  0.9462833612890051  0.3039384823176903  0.2236098237454556   F   F   F
  0.8690563302489380  0.9770500116104230  0.1342576139045448   F   F   F
  0.7171106193404952  0.2969876676105727  0.2257845762136341   F   F   F
  0.4563820814942758  0.2976701910170334  0.2219475371090880   F   F   F
  0.8693529692367647  0.4543744225557163  0.1311308469772712   F   F   F
  0.1220030719522569  0.2018087212614930  0.1324010706863632   F   F   F
  0.7829019622226241  0.6202837550590488  0.0451729013090940   F   F   F
  0.2978972113281415  0.6241254916404273  0.0494225953454546   F   F   F
  0.3860904589733565  0.7174036682893004  0.1312306088954571   F   F   F
  0.3884240254738813  0.4538593918908589  0.1321607624818171   F   F   F
  0.7920116368629095  0.3862564180527244  0.3190344898636397   F   F   F
  0.7861851256519614  0.3745117542013503  0.0441340194818167   F   F   F
  0.9513544597592940  0.0659301343836702  0.2213817175772732   F   F   F
  0.4635982856892369  0.7951887142894378  0.2264081887863654   F   F   F
  0.2310835121427104  0.7963463801926807  0.2255315960954576   F   F   F
  0.4612243376662803  0.0241249826618102  0.2248505513227244   F   F   F
  0.8732603440723918  0.8431187945846189  0.4623385467999975   T   T   T
 
  0.00000000E+00  0.00000000E+00  0.00000000E+00
  0.00000000E+00  0.00000000E+00  0.00000000E+00
  0.00000000E+00  0.00000000E+00  0.00000000E+00
  0.00000000E+00  0.00000000E+00  0.00000000E+00
  0.00000000E+00  0.00000000E+00  0.00000000E+00
  0.00000000E+00  0.00000000E+00  0.00000000E+00
  0.00000000E+00  0.00000000E+00  0.00000000E+00
  0.00000000E+00  0.00000000E+00  0.00000000E+00
  0.00000000E+00  0.00000000E+00  0.00000000E+00
  0.00000000E+00  0.00000000E+00  0.00000000E+00
  0.00000000E+00  0.00000000E+00  0.00000000E+00
  0.00000000E+00  0.00000000E+00  0.00000000E+00
  0.00000000E+00  0.00000000E+00  0.00000000E+00
  0.00000000E+00  0.00000000E+00  0.00000000E+00
  0.00000000E+00  0.00000000E+00  0.00000000E+00
  0.00000000E+00  0.00000000E+00  0.00000000E+00
  0.00000000E+00  0.00000000E+00  0.00000000E+00
  0.00000000E+00  0.00000000E+00  0.00000000E+00
  0.00000000E+00  0.00000000E+00  0.00000000E+00
  0.00000000E+00  0.00000000E+00  0.00000000E+00
  0.00000000E+00  0.00000000E+00  0.00000000E+00
  0.00000000E+00  0.00000000E+00  0.00000000E+00
  0.00000000E+00  0.00000000E+00  0.00000000E+00
  0.00000000E+00  0.00000000E+00  0.00000000E+00
  0.00000000E+00  0.00000000E+00  0.00000000E+00
  0.00000000E+00  0.00000000E+00  0.00000000E+00
  0.00000000E+00  0.00000000E+00  0.00000000E+00
  0.00000000E+00  0.00000000E+00  0.00000000E+00
  0.00000000E+00  0.00000000E+00  0.00000000E+00
  0.00000000E+00  0.00000000E+00  0.00000000E+00
  0.00000000E+00  0.00000000E+00  0.00000000E+00
  0.00000000E+00  0.00000000E+00  0.00000000E+00
  0.00000000E+00  0.00000000E+00  0.00000000E+00
  0.00000000E+00  0.00000000E+00  0.00000000E+00
  0.00000000E+00  0.00000000E+00  0.00000000E+00
  0.00000000E+00  0.00000000E+00  0.00000000E+00
  0.00000000E+00  0.00000000E+00  0.00000000E+00
  0.00000000E+00  0.00000000E+00  0.00000000E+00
  0.00000000E+00  0.00000000E+00  0.00000000E+00
  0.00000000E+00  0.00000000E+00  0.00000000E+00
  0.00000000E+00  0.00000000E+00  0.00000000E+00
  0.00000000E+00  0.00000000E+00  0.00000000E+00
  0.00000000E+00  0.00000000E+00  0.00000000E+00
  0.00000000E+00  0.00000000E+00  0.00000000E+00
  0.00000000E+00  0.00000000E+00  0.00000000E+00
  0.00000000E+00  0.00000000E+00  0.00000000E+00
  0.00000000E+00  0.00000000E+00  0.00000000E+00
  0.00000000E+00  0.00000000E+00  0.00000000E+00
  0.00000000E+00  0.00000000E+00  0.00000000E+00
  0.00000000E+00  0.00000000E+00  0.00000000E+00
  0.00000000E+00  0.00000000E+00  0.00000000E+00
  0.00000000E+00  0.00000000E+00  0.00000000E+00
  0.00000000E+00  0.00000000E+00  0.00000000E+00
  0.00000000E+00  0.00000000E+00  0.00000000E+00
  0.00000000E+00  0.00000000E+00  0.00000000E+00
  0.00000000E+00  0.00000000E+00  0.00000000E+00
  0.00000000E+00  0.00000000E+00  0.00000000E+00
  0.00000000E+00  0.00000000E+00  0.00000000E+00
  0.00000000E+00  0.00000000E+00  0.00000000E+00
  0.00000000E+00  0.00000000E+00  0.00000000E+00
  0.00000000E+00  0.00000000E+00  0.00000000E+00
  0.00000000E+00  0.00000000E+00  0.00000000E+00
  0.00000000E+00  0.00000000E+00  0.00000000E+00
  0.00000000E+00  0.00000000E+00  0.00000000E+00
  0.00000000E+00  0.00000000E+00  0.00000000E+00
  0.00000000E+00  0.00000000E+00  0.00000000E+00
  0.00000000E+00  0.00000000E+00  0.00000000E+00
  0.00000000E+00  0.00000000E+00  0.00000000E+00
  0.00000000E+00  0.00000000E+00  0.00000000E+00
  0.00000000E+00  0.00000000E+00  0.00000000E+00
  0.00000000E+00  0.00000000E+00  0.00000000E+00
  0.00000000E+00  0.00000000E+00  0.00000000E+00
  0.00000000E+00  0.00000000E+00  0.00000000E+00
  0.00000000E+00  0.00000000E+00  0.00000000E+00
  0.00000000E+00  0.00000000E+00  0.00000000E+00
  0.00000000E+00  0.00000000E+00  0.00000000E+00
  0.00000000E+00  0.00000000E+00  0.00000000E+00
  0.00000000E+00  0.00000000E+00  0.00000000E+00
  0.00000000E+00  0.00000000E+00  0.00000000E+00
  0.00000000E+00  0.00000000E+00  0.00000000E+00
  0.00000000E+00  0.00000000E+00  0.00000000E+00
