Pt111                                   
   1.00000000000000     
    11.2227001190000006    0.0000000000000000    0.0000000000000000
     5.6113500595000003    9.7191434021000003    0.0000000000000000
     0.0000000000000000    0.0000000000000000   22.0000000000000000
   Pt   H 
    80    17
Selective dynamics
Direct
  0.7849835715730222  0.8688251466045287  0.3262254592909102   F   F   F
  0.0349826053737488  0.8687413589633479  0.3262359690772740   F   F   F
  0.0349372491256545  0.6188537263685632  0.3262141675136334   F   F   F
  0.7856648326204123  0.8685861632184526  0.0212474641954543   F   F   F
  0.0356362628579703  0.8685415778386485  0.0212568919090899   F   F   F
  0.0357097340969688  0.6185471806600802  0.0211790951181783   F   F   F
  0.6189500240767742  0.2020057857234434  0.1246415784681787   F   F   F
  0.3689137132308744  0.9516548080051521  0.1245529668909100   F   F   F
  0.0355133436943547  0.3684853684354721  0.3256948647863638   F   F   F
  0.0357299200430319  0.3684660821473429  0.0210497210818161   F   F   F
  0.8685819896057865  0.2019556454816680  0.1246221372363649   F   F   F
  0.9518848188894680  0.5353790399137139  0.2246724703590885   F   F   F
  0.2847457211195490  0.1192014176115208  0.3256997352454576   F   F   F
  0.5349518666696653  0.6186644504186276  0.3270462070045426   F   F   F
  0.2847058143145134  0.3684317535870818  0.3257008694272727   F   F   F
  0.2857214736631235  0.1185215055321720  0.0210940557590931   F   F   F
  0.5357381901586606  0.6185013641018173  0.0212804855318183   F   F   F
  0.2856488258392531  0.3685164254831435  0.0210338483909069   F   F   F
  0.6190039737142286  0.9517526058625023  0.1246487302545489   F   F   F
  0.7018893371761052  0.7852810565950605  0.2248324971136384   F   F   F
  0.8685749021241875  0.7022058373812428  0.1246128793227257   F   F   F
  0.6186927394909958  0.4521300858417732  0.1247201537499976   F   F   F
  0.2848247333440028  0.8685280716278001  0.3263196445181791   F   F   F
  0.2856500808620126  0.8684516541731711  0.0213400939818200   F   F   F
  0.6186341140819849  0.7018961048075525  0.1246974538272738   F   F   F
  0.2018969163188444  0.0353768674022987  0.2246779570909112   F   F   F
  0.8680568992085327  0.9520410710269687  0.4320912936090906   F   F   F
  0.1181518936215866  0.4518507205944857  0.4319824971590904   F   F   F
  0.1174229046594562  0.9524984735280029  0.4323172295045481   F   F   F
  0.8693787485002105  0.4514461120567432  0.4311722926999977   F   F   F
  0.3673169077395855  0.9535187250244306  0.4311935155909126   F   F   F
  0.8684365712458160  0.2015546440416500  0.4322223678590902   F   F   F
  0.1181680712889488  0.2022088905258244  0.4319030226954510   F   F   F
  0.6182254611715194  0.9524600276707318  0.4323036721272757   F   F   F
  0.8684203502613173  0.7022279721096965  0.4322144363409066   F   F   F
  0.3678750631315069  0.2022042973947009  0.4319043716909121   F   F   F
  0.3659395404842982  0.7031645528476673  0.4344232666227299   F   F   F
  0.6189319157130839  0.4501454476178139  0.4344104994909088   F   F   F
  0.1174457834892806  0.7022336769540090  0.4322672720954515   F   F   F
  0.6182344362084322  0.2014962396044950  0.4322398529227272   F   F   F
  0.5352819485572411  0.3686008412763968  0.3263017338818202   F   F   F
  0.5357440572638765  0.3685358433466561  0.0213486918045476   F   F   F
  0.5352172505482642  0.1185685279168780  0.3262153462636377   F   F   F
  0.5357544478505574  0.1185025213900204  0.0211991766681834   F   F   F
  0.8685744987487851  0.4520075230447560  0.1245512337045440   F   F   F
  0.1184382932461787  0.4526498457517789  0.1241703284818172   F   F   F
  0.0348935507877997  0.1185578938521488  0.3262136637136379   F   F   F
  0.0356763808990479  0.1184494307236221  0.0211844599499997   F   F   F
  0.1187710771573265  0.9517039543115899  0.1246626563863629   F   F   F
  0.3673581018050740  0.4514494094460986  0.4311724798090921   F   F   F
  0.4519420798166038  0.5354635253015729  0.2249713992045486   F   F   F
  0.6188929337169427  0.7030956669415431  0.4344188627954537   F   F   F
  0.3694458072315498  0.2016417733559237  0.1241795441590909   F   F   F
  0.1184058987269978  0.2015953478345267  0.1241720177136330   F   F   F
  0.9519491748561322  0.7852597875087355  0.2248346953409097   F   F   F
  0.7847771275702797  0.6190892681961984  0.3263113343136368   F   F   F
  0.2848028698866401  0.6190174036016458  0.3263045103181810   F   F   F
  0.7856564697611574  0.6185765159922383  0.0214043126227281   F   F   F
  0.2857482344181577  0.6185769541172732  0.0214085693045476   F   F   F
  0.3689843160660757  0.7018539562165671  0.1247073582318166   F   F   F
  0.3689523333648168  0.4520122090132759  0.1245648365545478   F   F   F
  0.2018508475558249  0.2853521314543812  0.2233712084999979   F   F   F
  0.7847387149449077  0.3686486249421748  0.3263030959636382   F   F   F
  0.7855645175511725  0.3685671894938807  0.0213347493045433   F   F   F
  0.9518748351586197  0.0354056891809691  0.2248328946090936   F   F   F
  0.4519972513853219  0.7852009918951381  0.2249920110999994   F   F   F
  0.7017680479558024  0.5354962403760268  0.2249635235909082   F   F   F
  0.2020322287361580  0.7852502144222910  0.2248380461499977   F   F   F
  0.4518508516126118  0.0353929366785195  0.2246745854909094   F   F   F
  0.1187385563712695  0.7022177039928579  0.1246289237363669   F   F   F
  0.7018131851765119  0.0354304987027589  0.2248249124500035   F   F   F
  0.7849938795265032  0.1187181140830447  0.3262397109363633   F   F   F
  0.5353328818180927  0.8685477227114546  0.3263201845318164   F   F   F
  0.7857369531176843  0.1184699097711857  0.0213156547363624   F   F   F
  0.5357219213335469  0.8684663685254606  0.0213487057090944   F   F   F
  0.2019070018799951  0.5353181470988275  0.2246692787727298   F   F   F
  0.9519108701435002  0.2853180079636246  0.2246995307772721   F   F   F
  0.8687944945651367  0.9519022564479300  0.1247256395545477   F   F   F
  0.7018613288241653  0.2854307497305371  0.2248263858045476   F   F   F
  0.4518527224311839  0.2853323236696781  0.2247106741681790   F   F   F
  0.4375408346320455  0.5216480202570679  0.4764847533500003   T   T   T
  0.5345548190444589  0.6186334973204382  0.4699900124318213   T   T   T
  0.7284401788673591  0.5219244753199064  0.4762538344909117   F   F   F
  0.1965581209556646  0.7878190435430312  0.4739650112636369   F   F   F
  0.4379713564913601  0.8124380585323863  0.4762304636999986   F   F   F
  0.7037496960046283  0.7877438701795185  0.4739020704181840   F   F   F
  0.9511852962341436  0.7858851921198777  0.4731717981727286   F   F   F
  0.2003419048331381  0.5356271281453857  0.4728370320636373   F   F   F
  0.9519227232510161  0.5357526050263743  0.4728256607727275   F   F   F
  0.2013913551203217  0.2853569621475884  0.4728477940909102   F   F   F
  0.4516896986240440  0.2842923804584458  0.4728009663772710   F   F   F
  0.7038103248317142  0.2805771186903954  0.4739214292818161   F   F   F
  0.9520496038395478  0.2844793010361997  0.4728009174818197   F   F   F
  0.2004761593277280  0.0360232217403365  0.4728387658409119   F   F   F
  0.4517136955639316  0.0359691553192292  0.4728145531318191   F   F   F
  0.7019470864883743  0.0351566150290736  0.4732008825318204   F   F   F
  0.9511110319074589  0.0352300140489774  0.4732223677272742   F   F   F
 
  0.00000000E+00  0.00000000E+00  0.00000000E+00
  0.00000000E+00  0.00000000E+00  0.00000000E+00
  0.00000000E+00  0.00000000E+00  0.00000000E+00
  0.00000000E+00  0.00000000E+00  0.00000000E+00
  0.00000000E+00  0.00000000E+00  0.00000000E+00
  0.00000000E+00  0.00000000E+00  0.00000000E+00
  0.00000000E+00  0.00000000E+00  0.00000000E+00
  0.00000000E+00  0.00000000E+00  0.00000000E+00
  0.00000000E+00  0.00000000E+00  0.00000000E+00
  0.00000000E+00  0.00000000E+00  0.00000000E+00
  0.00000000E+00  0.00000000E+00  0.00000000E+00
  0.00000000E+00  0.00000000E+00  0.00000000E+00
  0.00000000E+00  0.00000000E+00  0.00000000E+00
  0.00000000E+00  0.00000000E+00  0.00000000E+00
  0.00000000E+00  0.00000000E+00  0.00000000E+00
  0.00000000E+00  0.00000000E+00  0.00000000E+00
  0.00000000E+00  0.00000000E+00  0.00000000E+00
  0.00000000E+00  0.00000000E+00  0.00000000E+00
  0.00000000E+00  0.00000000E+00  0.00000000E+00
  0.00000000E+00  0.00000000E+00  0.00000000E+00
  0.00000000E+00  0.00000000E+00  0.00000000E+00
  0.00000000E+00  0.00000000E+00  0.00000000E+00
  0.00000000E+00  0.00000000E+00  0.00000000E+00
  0.00000000E+00  0.00000000E+00  0.00000000E+00
  0.00000000E+00  0.00000000E+00  0.00000000E+00
  0.00000000E+00  0.00000000E+00  0.00000000E+00
  0.00000000E+00  0.00000000E+00  0.00000000E+00
  0.00000000E+00  0.00000000E+00  0.00000000E+00
  0.00000000E+00  0.00000000E+00  0.00000000E+00
  0.00000000E+00  0.00000000E+00  0.00000000E+00
  0.00000000E+00  0.00000000E+00  0.00000000E+00
  0.00000000E+00  0.00000000E+00  0.00000000E+00
  0.00000000E+00  0.00000000E+00  0.00000000E+00
  0.00000000E+00  0.00000000E+00  0.00000000E+00
  0.00000000E+00  0.00000000E+00  0.00000000E+00
  0.00000000E+00  0.00000000E+00  0.00000000E+00
  0.00000000E+00  0.00000000E+00  0.00000000E+00
  0.00000000E+00  0.00000000E+00  0.00000000E+00
  0.00000000E+00  0.00000000E+00  0.00000000E+00
  0.00000000E+00  0.00000000E+00  0.00000000E+00
  0.00000000E+00  0.00000000E+00  0.00000000E+00
  0.00000000E+00  0.00000000E+00  0.00000000E+00
  0.00000000E+00  0.00000000E+00  0.00000000E+00
  0.00000000E+00  0.00000000E+00  0.00000000E+00
  0.00000000E+00  0.00000000E+00  0.00000000E+00
  0.00000000E+00  0.00000000E+00  0.00000000E+00
  0.00000000E+00  0.00000000E+00  0.00000000E+00
  0.00000000E+00  0.00000000E+00  0.00000000E+00
  0.00000000E+00  0.00000000E+00  0.00000000E+00
  0.00000000E+00  0.00000000E+00  0.00000000E+00
  0.00000000E+00  0.00000000E+00  0.00000000E+00
  0.00000000E+00  0.00000000E+00  0.00000000E+00
  0.00000000E+00  0.00000000E+00  0.00000000E+00
  0.00000000E+00  0.00000000E+00  0.00000000E+00
  0.00000000E+00  0.00000000E+00  0.00000000E+00
  0.00000000E+00  0.00000000E+00  0.00000000E+00
  0.00000000E+00  0.00000000E+00  0.00000000E+00
  0.00000000E+00  0.00000000E+00  0.00000000E+00
  0.00000000E+00  0.00000000E+00  0.00000000E+00
  0.00000000E+00  0.00000000E+00  0.00000000E+00
  0.00000000E+00  0.00000000E+00  0.00000000E+00
  0.00000000E+00  0.00000000E+00  0.00000000E+00
  0.00000000E+00  0.00000000E+00  0.00000000E+00
  0.00000000E+00  0.00000000E+00  0.00000000E+00
  0.00000000E+00  0.00000000E+00  0.00000000E+00
  0.00000000E+00  0.00000000E+00  0.00000000E+00
  0.00000000E+00  0.00000000E+00  0.00000000E+00
  0.00000000E+00  0.00000000E+00  0.00000000E+00
  0.00000000E+00  0.00000000E+00  0.00000000E+00
  0.00000000E+00  0.00000000E+00  0.00000000E+00
  0.00000000E+00  0.00000000E+00  0.00000000E+00
  0.00000000E+00  0.00000000E+00  0.00000000E+00
  0.00000000E+00  0.00000000E+00  0.00000000E+00
  0.00000000E+00  0.00000000E+00  0.00000000E+00
  0.00000000E+00  0.00000000E+00  0.00000000E+00
  0.00000000E+00  0.00000000E+00  0.00000000E+00
  0.00000000E+00  0.00000000E+00  0.00000000E+00
  0.00000000E+00  0.00000000E+00  0.00000000E+00
  0.00000000E+00  0.00000000E+00  0.00000000E+00
  0.00000000E+00  0.00000000E+00  0.00000000E+00
  0.00000000E+00  0.00000000E+00  0.00000000E+00
  0.00000000E+00  0.00000000E+00  0.00000000E+00
  0.00000000E+00  0.00000000E+00  0.00000000E+00
  0.00000000E+00  0.00000000E+00  0.00000000E+00
  0.00000000E+00  0.00000000E+00  0.00000000E+00
  0.00000000E+00  0.00000000E+00  0.00000000E+00
  0.00000000E+00  0.00000000E+00  0.00000000E+00
  0.00000000E+00  0.00000000E+00  0.00000000E+00
  0.00000000E+00  0.00000000E+00  0.00000000E+00
  0.00000000E+00  0.00000000E+00  0.00000000E+00
  0.00000000E+00  0.00000000E+00  0.00000000E+00
  0.00000000E+00  0.00000000E+00  0.00000000E+00
  0.00000000E+00  0.00000000E+00  0.00000000E+00
  0.00000000E+00  0.00000000E+00  0.00000000E+00
  0.00000000E+00  0.00000000E+00  0.00000000E+00
  0.00000000E+00  0.00000000E+00  0.00000000E+00
  0.00000000E+00  0.00000000E+00  0.00000000E+00
