Pt   H                                  
   1.00000000000000     
    11.2227001190000006    0.0000000000000000    0.0000000000000000
     5.6113500595000003    9.7191434021000003    0.0000000000000000
     0.0000000000000000    0.0000000000000000   22.0000000000000000
   Pt   H 
    80    17
Direct
  0.7918572735789331  0.8809390232627273  0.3427374916155367
  0.0419120118616301  0.8804753329876912  0.3434745525764939
  0.0418804022683527  0.6318793852032389  0.3435539465712209
  0.7851426119153191  0.8721363067818103  0.0380185908386596
  0.0323727921774152  0.8747667819644007  0.0384671750150713
  0.0313746933176454  0.6257191867517315  0.0382483922819699
  0.6186132239172515  0.2113353929288957  0.1423870716692093
  0.3686135566593726  0.9613772304678679  0.1420073022824336
  0.0401540846075235  0.3829106410453483  0.3440794927399883
  0.0299797638120627  0.3757065250349084  0.0397672270457450
  0.8688628141095007  0.2109687694302235  0.1425798747681594
  0.9544350381497191  0.5466928779339236  0.2424214502349577
  0.2932652253085321  0.1301876838963376  0.3439036983437151
  0.5415769909658404  0.6307490043797437  0.3448293089521588
  0.2915381996784900  0.3809733177855667  0.3436649868844357
  0.2813042232516700  0.1251045060298163  0.0359272338152750
  0.5319014810276816  0.6249040761322446  0.0387041240453156
  0.2781521998854739  0.3827621745397997  0.0403582898300407
  0.6195864560573484  0.9593439486842532  0.1422313350451418
  0.7060078016047391  0.7951293335464205  0.2425037219585488
  0.8692489044923909  0.7107667623638954  0.1418106409066786
  0.6189161821917271  0.4606299135724928  0.1425081717613190
  0.2916412168408264  0.8808254395034364  0.3437166749475603
  0.2815787227812955  0.8740027233491172  0.0392642375588374
  0.6188061644146077  0.7107882389920370  0.1426762434628861
  0.2056576121822031  0.0453253294304678  0.2426947065741188
  0.8770161090431712  0.9669457769178892  0.4481854279652946
  0.1279876337485792  0.4671848337996981  0.4493188450536705
  0.1282427047620955  0.9651438367977913  0.4492524432582957
  0.8745485146263273  0.4675425068738204  0.4505820366033710
  0.3784540999470109  0.9631717505442211  0.4492188758355524
  0.8759546474412908  0.2180157501294784  0.4502260644966591
  0.1273792094397642  0.2165875260798481  0.4479949164783307
  0.6275051663966306  0.9658305028848708  0.4483341759068530
  0.8765990948386717  0.7161655884641606  0.4484954014139650
  0.3785812245234124  0.2165814100866513  0.4494965408712112
  0.3785709979435161  0.7113882895814042  0.4498228841137878
  0.6232803583576522  0.4685183822895508  0.4505074840648099
  0.1299830866058923  0.7151764269762546  0.4510425683480401
  0.6261985021407120  0.2196123140542763  0.4519997786279121
  0.5415436236001993  0.3813370449508713  0.3445282265836880
  0.5333948688087080  0.3772343886527035  0.0388875294737433
  0.5426320657233422  0.1314376336766419  0.3437419672919412
  0.5453101603207015  0.1215567200345100  0.0417481402099423
  0.8688550470712304  0.4607014215205419  0.1426585823330540
  0.1184651850178874  0.4605702515693637  0.1427366067549927
  0.0408150479716948  0.1314476486039726  0.3438791917026111
  0.0320647706044014  0.1252685923564692  0.0395142715924531
  0.1192078850846270  0.9605641337696289  0.1423995063700697
  0.3792987618792549  0.4679855301484294  0.4496114068119007
  0.4554076013169354  0.5456078882098244  0.2425404813384963
  0.6255729114559201  0.7148808976059940  0.4534829465926364
  0.3683213134562252  0.2106959520835090  0.1426372016803482
  0.1209244713728497  0.2097915734462330  0.1422627768019274
  0.9556030329183690  0.7960395792771726  0.2415372462710664
  0.7900400177483462  0.6311638821814972  0.3445050908947669
  0.2917560984106536  0.6306991463241773  0.3440053185720656
  0.7819560747361201  0.6250370772085749  0.0387779757855107
  0.2821726793887484  0.6257030475990014  0.0382726870891043
  0.3692790460306103  0.7104626719143435  0.1423325229335863
  0.3695978423619379  0.4603050601560054  0.1424143975299674
  0.2048329544411067  0.2960897399888560  0.2433147323486368
  0.7911540408101154  0.3818444927722725  0.3445924722238961
  0.7822847705528559  0.3748375008458233  0.0391274004462243
  0.9551909815605852  0.0462003936002625  0.2424073754011412
  0.4559736080262765  0.7947531525177423  0.2430118532898415
  0.7043420668156098  0.5464193699201769  0.2426385881065518
  0.2057189171733119  0.7951702283927736  0.2424079166399272
  0.4562530772090382  0.0449947794463563  0.2425256924501294
  0.1197624733143162  0.7100738974570044  0.1418717695161152
  0.7056759208317264  0.0459423924634401  0.2418275391576601
  0.7904580163839244  0.1326659084354684  0.3438696738946121
  0.5427755086298940  0.8791866464836349  0.3441071790150267
  0.7845891535741836  0.1247426878671374  0.0384961085627871
  0.5342232096951149  0.8700801689365742  0.0396243375397901
  0.2052614322144636  0.5460772558627506  0.2423529348483487
  0.9537301552565566  0.2970172753576128  0.2431584835727751
  0.8691725598251204  0.9608777933307941  0.1416473413950258
  0.7047319039857726  0.2964970237713193  0.2427520046070395
  0.4558840366280844  0.2959097943293142  0.2427563001600933
  0.4173431953690098  0.1697209641851012  1.0025392334313361
  0.3574551476766029  0.1185024034927365  0.9866299439834293
  0.6998820818142897  0.5562980412621815  0.4951507833346511
  0.2013087705158735  0.8061013760606082  0.4924982567639171
  0.4596999428060106  0.7894068507524207  0.4931425603440438
  0.7125510248310867  0.8025728355257810  0.4904411456780101
  0.9596915152116190  0.7999802413320913  0.4884412317468418
  0.2060000213861965  0.5510915761075265  0.4918022088250737
  0.9609204600083838  0.5482365282490181  0.4893500615592207
  0.2111547154927051  0.2987157319941522  0.4889417798600211
  0.4612852736681228  0.2945685828305524  0.4925155064317083
  0.7123484304796939  0.2998537395705723  0.4928138577737838
  0.9641630453068005  0.2995472163035562  0.4899690080832254
  0.2114456104707337  0.0514133018755890  0.4887432671258572
  0.4604390212021017  0.0479204614916329  0.4887906323578137
  0.7113548375010155  0.0487089451093724  0.4892347161286929
  0.9615080767011498  0.0498743771023929  0.4889864570852911
 
             NaN             NaN             NaN
             NaN             NaN             NaN
             NaN             NaN             NaN
             NaN             NaN             NaN
             NaN             NaN             NaN
             NaN             NaN             NaN
             NaN             NaN             NaN
             NaN             NaN             NaN
             NaN             NaN             NaN
             NaN             NaN             NaN
             NaN             NaN             NaN
             NaN             NaN             NaN
             NaN             NaN             NaN
             NaN             NaN             NaN
             NaN             NaN             NaN
             NaN             NaN             NaN
             NaN             NaN             NaN
             NaN             NaN             NaN
             NaN             NaN             NaN
             NaN             NaN             NaN
             NaN             NaN             NaN
             NaN             NaN             NaN
             NaN             NaN             NaN
             NaN             NaN             NaN
             NaN             NaN             NaN
             NaN             NaN             NaN
             NaN             NaN             NaN
             NaN             NaN             NaN
             NaN             NaN             NaN
             NaN             NaN             NaN
             NaN             NaN             NaN
             NaN             NaN             NaN
             NaN             NaN             NaN
             NaN             NaN             NaN
             NaN             NaN             NaN
             NaN             NaN             NaN
             NaN             NaN             NaN
             NaN             NaN             NaN
             NaN             NaN             NaN
             NaN             NaN             NaN
             NaN             NaN             NaN
             NaN             NaN             NaN
             NaN             NaN             NaN
             NaN             NaN             NaN
             NaN             NaN             NaN
             NaN             NaN             NaN
             NaN             NaN             NaN
             NaN             NaN             NaN
             NaN             NaN             NaN
             NaN             NaN             NaN
             NaN             NaN             NaN
             NaN             NaN             NaN
             NaN             NaN             NaN
             NaN             NaN             NaN
             NaN             NaN             NaN
             NaN             NaN             NaN
             NaN             NaN             NaN
             NaN             NaN             NaN
             NaN             NaN             NaN
             NaN             NaN             NaN
             NaN             NaN             NaN
             NaN             NaN             NaN
             NaN             NaN             NaN
             NaN             NaN             NaN
             NaN             NaN             NaN
             NaN             NaN             NaN
             NaN             NaN             NaN
             NaN             NaN             NaN
             NaN             NaN             NaN
             NaN             NaN             NaN
             NaN             NaN             NaN
             NaN             NaN             NaN
             NaN             NaN             NaN
             NaN             NaN             NaN
             NaN             NaN             NaN
             NaN             NaN             NaN
             NaN             NaN             NaN
             NaN             NaN             NaN
             NaN             NaN             NaN
             NaN             NaN             NaN
             NaN             NaN             NaN
             NaN             NaN             NaN
             NaN             NaN             NaN
             NaN             NaN             NaN
             NaN             NaN             NaN
             NaN             NaN             NaN
             NaN             NaN             NaN
             NaN             NaN             NaN
             NaN             NaN             NaN
             NaN             NaN             NaN
             NaN             NaN             NaN
             NaN             NaN             NaN
             NaN             NaN             NaN
             NaN             NaN             NaN
             NaN             NaN             NaN
             NaN             NaN             NaN
             NaN             NaN             NaN
