Pt   H                                  
   1.00000000000000     
    11.2227001190000006    0.0000000000000000    0.0000000000000000
     5.6113500595000003    9.7191434021000003    0.0000000000000000
     0.0000000000000000    0.0000000000000000   22.0000000000000000
   Pt   H 
    80    16
Direct
  0.7838619649742326  0.8702943335954678  0.3265626996371563
  0.0340126454793383  0.8703441912669737  0.3266256413861827
  0.0338460712419897  0.6205356099187150  0.3267398307513750
  0.7841984620362926  0.8697756804733437  0.0218750603588958
  0.0344880239793914  0.8697814893706094  0.0218213582422114
  0.0344687043183601  0.6193958534376555  0.0218467761232759
  0.6173726977312510  0.2032761387817701  0.1252272016752036
  0.3673889892263960  0.9532727698596990  0.1248818837993802
  0.0336994856615236  0.3702314239456140  0.3264714720568971
  0.0345290414843015  0.3693055787765748  0.0217899315204918
  0.8675484104645149  0.2033609964767831  0.1253116344043670
  0.9503056248852397  0.5372656409205433  0.2251712797871334
  0.2836891077762515  0.1208009525836304  0.3267589599609291
  0.5340016928387306  0.6191570326667176  0.3274117946780589
  0.2844600891278486  0.3705492841302671  0.3266825652768804
  0.2844448569158328  0.1197227203429058  0.0219323948650388
  0.5345919823212480  0.6191554296518711  0.0216264713532421
  0.2846252975623543  0.3691732317379638  0.0218000709065284
  0.6170398662679456  0.9536551016313439  0.1250311331184182
  0.7007997444476091  0.7867009295949343  0.2249134599059145
  0.8675142258600118  0.7033721106990292  0.1249091435610176
  0.6175376640850821  0.4531047312651005  0.1253390116310830
  0.2841310716253119  0.8703802813497513  0.3262901303566105
  0.2842754181829453  0.8697675068527582  0.0216354835662672
  0.6175615660468035  0.7032998810332681  0.1247875102457425
  0.2007258215214227  0.0368354237560642  0.2253987578598256
  0.8676334643220498  0.9529215402471655  0.4324862449577014
  0.1174857693713415  0.4541793383769593  0.4325167776242451
  0.1182100390459133  0.9529918812443076  0.4323429135394667
  0.8655077427339773  0.4556819017161848  0.4309659950072733
  0.3672146027190522  0.9538879806173136  0.4324355242295068
  0.8680058022078382  0.2036712352983477  0.4325338476763022
  0.1165832876585001  0.2045441264129195  0.4326654293128614
  0.6171147845799055  0.9530634913624324  0.4321732780885366
  0.8665926151043879  0.7030536319089533  0.4329051516142299
  0.3671782017717920  0.2044761935449911  0.4326322400742924
  0.3689142487133670  0.7019586527476733  0.4317935928074038
  0.6187032207904164  0.4584700738553256  0.4437061808666167
  0.1183804463553518  0.7031597190067522  0.4328569500011196
  0.6168507129230274  0.2037384987247856  0.4323782801584188
  0.5348263608000851  0.3720565259557249  0.3288245538910188
  0.5344009999537245  0.3697187387159073  0.0218330786932462
  0.5335572646044512  0.1209172300005284  0.3265873562997496
  0.5339358130815455  0.1199499067604962  0.0217716758231705
  0.8677999780058407  0.4531640439533134  0.1251498934302418
  0.1176649685507704  0.4528986216937825  0.1250830181685833
  0.0334963467412134  0.1209371068233850  0.3266622390783904
  0.0344648079595737  0.1197370974790377  0.0218219578402209
  0.1175605189126235  0.9536534285004842  0.1251171286142649
  0.3686574281226166  0.4555310717922940  0.4319913407040659
  0.4509896860622284  0.5365958915890047  0.2256302004342063
  0.6178070018421989  0.7021601874095251  0.4305794517223813
  0.3673680799804049  0.2034387184184979  0.1254271828052598
  0.1173406481219785  0.2033922756152895  0.1253475881572752
  0.9506123571965400  0.7869930978371684  0.2251582088028310
  0.7839465761790763  0.6208570583700791  0.3263016350979976
  0.2834408228242631  0.6207059904647048  0.3266384143892658
  0.7840500083372609  0.6194424189854617  0.0217642257839795
  0.2848147333809139  0.6194804951436617  0.0217878422668112
  0.3673718338028729  0.7032488332615181  0.1248438999590545
  0.3672000354676820  0.4532396044682170  0.1251357637949005
  0.2001667339194596  0.2875685713204172  0.2256727235929392
  0.7799733371274359  0.3723654821176640  0.3290202674401559
  0.7843185374699110  0.3696790899294307  0.0218806351610305
  0.9504182772711610  0.0370316285495489  0.2253055125191490
  0.4510397532563517  0.7859281078355017  0.2248453817400527
  0.7005615776623867  0.5365834539063171  0.2255828921729247
  0.2006486355287353  0.7867199423790142  0.2250226626405930
  0.4504795731202969  0.0367568875157965  0.2252766274580353
  0.1173775402524902  0.7034217359549395  0.1249269785464135
  0.7006627687249194  0.0370475229397436  0.2252798940350010
  0.7838759309587173  0.1202001563641557  0.3269589247539168
  0.5331820612965033  0.8709732017440120  0.3259666241295619
  0.7842647572568220  0.1199378709959410  0.0220089547169176
  0.5342517764506874  0.8697063470595576  0.0215760689580073
  0.2005359179110419  0.5372570866126698  0.2252244229129252
  0.9490452105315768  0.2875377255698642  0.2257504044211193
  0.8673925713141942  0.9535626551459301  0.1250601207509815
  0.7003888346714873  0.2874051176354968  0.2261258320020188
  0.4513692745737545  0.2874603758611134  0.2256012972138849
  0.5086518805954214  0.5113809485221841  0.4985556017825893
  0.6531979450183522  0.4773827341981810  0.5115729377913526
  0.2032445519041307  0.7850020701793908  0.4730599206349042
  0.4509756782645030  0.7870158801523458  0.4719761956800299
  0.6996053500995222  0.7850147409573114  0.4728278153132090
  0.9505900839249598  0.7866616147728949  0.4731537619699612
  0.2028623841674677  0.5366656349526814  0.4732444318356124
  0.9492842947522914  0.5365248056689255  0.4731822324220788
  0.2002771915467550  0.2876776192079969  0.4733980987163507
  0.4488829235237724  0.2905924717112842  0.4728985797312490
  0.7071304957600383  0.2720512041596975  0.4738446944869442
  0.9487015202876221  0.2909735735121616  0.4727937453308251
  0.2001326592016518  0.0371644205247245  0.4731688400926889
  0.4506668891541830  0.0372561977717436  0.4731058102396652
  0.7003725384434361  0.0362430650783259  0.4729274742322407
  0.9517633096581003  0.0359537986251340  0.4729948456861522
 
  0.00000000E+00  0.00000000E+00  0.00000000E+00
  0.00000000E+00  0.00000000E+00  0.00000000E+00
  0.00000000E+00  0.00000000E+00  0.00000000E+00
  0.00000000E+00  0.00000000E+00  0.00000000E+00
  0.00000000E+00  0.00000000E+00  0.00000000E+00
  0.00000000E+00  0.00000000E+00  0.00000000E+00
  0.00000000E+00  0.00000000E+00  0.00000000E+00
  0.00000000E+00  0.00000000E+00  0.00000000E+00
  0.00000000E+00  0.00000000E+00  0.00000000E+00
  0.00000000E+00  0.00000000E+00  0.00000000E+00
  0.00000000E+00  0.00000000E+00  0.00000000E+00
  0.00000000E+00  0.00000000E+00  0.00000000E+00
  0.00000000E+00  0.00000000E+00  0.00000000E+00
  0.00000000E+00  0.00000000E+00  0.00000000E+00
  0.00000000E+00  0.00000000E+00  0.00000000E+00
  0.00000000E+00  0.00000000E+00  0.00000000E+00
  0.00000000E+00  0.00000000E+00  0.00000000E+00
  0.00000000E+00  0.00000000E+00  0.00000000E+00
  0.00000000E+00  0.00000000E+00  0.00000000E+00
  0.00000000E+00  0.00000000E+00  0.00000000E+00
  0.00000000E+00  0.00000000E+00  0.00000000E+00
  0.00000000E+00  0.00000000E+00  0.00000000E+00
  0.00000000E+00  0.00000000E+00  0.00000000E+00
  0.00000000E+00  0.00000000E+00  0.00000000E+00
  0.00000000E+00  0.00000000E+00  0.00000000E+00
  0.00000000E+00  0.00000000E+00  0.00000000E+00
  0.00000000E+00  0.00000000E+00  0.00000000E+00
  0.00000000E+00  0.00000000E+00  0.00000000E+00
  0.00000000E+00  0.00000000E+00  0.00000000E+00
  0.00000000E+00  0.00000000E+00  0.00000000E+00
  0.00000000E+00  0.00000000E+00  0.00000000E+00
  0.00000000E+00  0.00000000E+00  0.00000000E+00
  0.00000000E+00  0.00000000E+00  0.00000000E+00
  0.00000000E+00  0.00000000E+00  0.00000000E+00
  0.00000000E+00  0.00000000E+00  0.00000000E+00
  0.00000000E+00  0.00000000E+00  0.00000000E+00
  0.00000000E+00  0.00000000E+00  0.00000000E+00
  0.00000000E+00  0.00000000E+00  0.00000000E+00
  0.00000000E+00  0.00000000E+00  0.00000000E+00
  0.00000000E+00  0.00000000E+00  0.00000000E+00
  0.00000000E+00  0.00000000E+00  0.00000000E+00
  0.00000000E+00  0.00000000E+00  0.00000000E+00
  0.00000000E+00  0.00000000E+00  0.00000000E+00
  0.00000000E+00  0.00000000E+00  0.00000000E+00
  0.00000000E+00  0.00000000E+00  0.00000000E+00
  0.00000000E+00  0.00000000E+00  0.00000000E+00
  0.00000000E+00  0.00000000E+00  0.00000000E+00
  0.00000000E+00  0.00000000E+00  0.00000000E+00
  0.00000000E+00  0.00000000E+00  0.00000000E+00
  0.00000000E+00  0.00000000E+00  0.00000000E+00
  0.00000000E+00  0.00000000E+00  0.00000000E+00
  0.00000000E+00  0.00000000E+00  0.00000000E+00
  0.00000000E+00  0.00000000E+00  0.00000000E+00
  0.00000000E+00  0.00000000E+00  0.00000000E+00
  0.00000000E+00  0.00000000E+00  0.00000000E+00
  0.00000000E+00  0.00000000E+00  0.00000000E+00
  0.00000000E+00  0.00000000E+00  0.00000000E+00
  0.00000000E+00  0.00000000E+00  0.00000000E+00
  0.00000000E+00  0.00000000E+00  0.00000000E+00
  0.00000000E+00  0.00000000E+00  0.00000000E+00
  0.00000000E+00  0.00000000E+00  0.00000000E+00
  0.00000000E+00  0.00000000E+00  0.00000000E+00
  0.00000000E+00  0.00000000E+00  0.00000000E+00
  0.00000000E+00  0.00000000E+00  0.00000000E+00
  0.00000000E+00  0.00000000E+00  0.00000000E+00
  0.00000000E+00  0.00000000E+00  0.00000000E+00
  0.00000000E+00  0.00000000E+00  0.00000000E+00
  0.00000000E+00  0.00000000E+00  0.00000000E+00
  0.00000000E+00  0.00000000E+00  0.00000000E+00
  0.00000000E+00  0.00000000E+00  0.00000000E+00
  0.00000000E+00  0.00000000E+00  0.00000000E+00
  0.00000000E+00  0.00000000E+00  0.00000000E+00
  0.00000000E+00  0.00000000E+00  0.00000000E+00
  0.00000000E+00  0.00000000E+00  0.00000000E+00
  0.00000000E+00  0.00000000E+00  0.00000000E+00
  0.00000000E+00  0.00000000E+00  0.00000000E+00
  0.00000000E+00  0.00000000E+00  0.00000000E+00
  0.00000000E+00  0.00000000E+00  0.00000000E+00
  0.00000000E+00  0.00000000E+00  0.00000000E+00
  0.00000000E+00  0.00000000E+00  0.00000000E+00
  0.00000000E+00  0.00000000E+00  0.00000000E+00
  0.00000000E+00  0.00000000E+00  0.00000000E+00
  0.00000000E+00  0.00000000E+00  0.00000000E+00
  0.00000000E+00  0.00000000E+00  0.00000000E+00
  0.00000000E+00  0.00000000E+00  0.00000000E+00
  0.00000000E+00  0.00000000E+00  0.00000000E+00
  0.00000000E+00  0.00000000E+00  0.00000000E+00
  0.00000000E+00  0.00000000E+00  0.00000000E+00
  0.00000000E+00  0.00000000E+00  0.00000000E+00
  0.00000000E+00  0.00000000E+00  0.00000000E+00
  0.00000000E+00  0.00000000E+00  0.00000000E+00
  0.00000000E+00  0.00000000E+00  0.00000000E+00
  0.00000000E+00  0.00000000E+00  0.00000000E+00
  0.00000000E+00  0.00000000E+00  0.00000000E+00
  0.00000000E+00  0.00000000E+00  0.00000000E+00
  0.00000000E+00  0.00000000E+00  0.00000000E+00
