10.56                                   
   1.00000000000000     
    10.5600004195999997    0.0000000000000000    0.0000000000000000
     5.2800002097999998    9.1452286273999999    0.0000000000000000
     0.0000000000000000    0.0000000000000000   22.0000000000000000
   Pt   Fe   Co   Cu   Ni   C 
    32    13    10    13    12     1
Selective dynamics
Direct
  0.7868733776308403  0.8792921880058202  0.3167677544999989   F   F   F
  0.0426714310614429  0.8846504134254829  0.3174004732590916   F   F   F
  0.2784697007337869  0.3812944695283562  0.3195315439272761   F   F   F
  0.8710471615631477  0.9591032816632463  0.4229540592818211   F   F   F
  0.1227668205770414  0.4629477450695134  0.4286644382272726   F   F   F
  0.1268962293334397  0.9554106509182034  0.4278037468363607   F   F   F
  0.8715597885719575  0.4653455573379048  0.4254990410090898   F   F   F
  0.3798040492952097  0.9571461445014293  0.4178812043818212   F   F   F
  0.8682715766445739  0.2138456958791224  0.4281200551090905   F   F   F
  0.1278601607195853  0.2143169384445684  0.4296930121727272   F   F   F
  0.6248817484546763  0.9599059131117400  0.4230711422363669   F   F   F
  0.8747095316658076  0.7103807168074070  0.4279991090409112   F   F   F
  0.3752907684100180  0.2087056010476829  0.4245937067272720   F   F   F
  0.3761240666495098  0.7111234386109544  0.4243460155090872   F   F   F
  0.6245631514722447  0.4618625316643232  0.4231411040272732   F   F   F
  0.1248670324978889  0.7089671435959843  0.4275014919636391   F   F   F
  0.6238952361334356  0.2102121234170369  0.4229134079272754   F   F   F
  0.5494124009637034  0.3753149897440906  0.3170589891045452   F   F   F
  0.5342659366400468  0.1256079967709454  0.3149943003136357   F   F   F
  0.5470002567308043  0.1235332521939583  0.0399417999772709   F   F   F
  0.1208089481832886  0.4601783015999317  0.1280394984818187   F   F   F
  0.0434273582143092  0.1378200674091090  0.3142101505409087   F   F   F
  0.0424414900706935  0.1302099981111695  0.0329802953681835   F   F   F
  0.1304832192178935  0.9579853651937356  0.1318324513636355   F   F   F
  0.3745857454593349  0.4612398421032395  0.4249093308590943   F   F   F
  0.4545409546936767  0.5457192756283078  0.2188518203000029   F   F   F
  0.6230282581630178  0.7103733869961175  0.4236254033636371   F   F   F
  0.9557150112739734  0.7901309279847197  0.2210448635636340   F   F   F
  0.7944941236082386  0.6227821949180949  0.3186876891090904   F   F   F
  0.2911487652197806  0.6321962998254449  0.3181114249272738   F   F   F
  0.2026302282546482  0.2805717472619946  0.2254649220954548   F   F   F
  0.7064516142104935  0.5493905794598390  0.2207507679909071   F   F   F
  0.0400085279375730  0.6312790022441845  0.3260833795954525   F   F   F
  0.7973180911857654  0.8616265572072663  0.0420760910772700   F   F   F
  0.0560985910286504  0.8657185943694543  0.0377408024136372   F   F   F
  0.0464128728304587  0.6281990126400245  0.0369911384090926   F   F   F
  0.6273755757405439  0.2222416784103771  0.1287505962318178   F   F   F
  0.3821141315863983  0.9550040284758836  0.1298830475227248   F   F   F
  0.0363396937479976  0.3816895859269920  0.3252708694318187   F   F   F
  0.0311405267529068  0.3816759960316460  0.0375046088681827   F   F   F
  0.8722404389362310  0.2153943248393162  0.1282949969590916   F   F   F
  0.9547121146441953  0.5451880757537140  0.2238905465227248   F   F   F
  0.2951996991931765  0.1174217981475749  0.3216687721409102   F   F   F
  0.5402285219445133  0.6296271566080094  0.3222523680363665   F   F   F
  0.2952537777580275  0.1193869715983666  0.0394092290045478   F   F   F
  0.5482511333458362  0.6253176515966246  0.0436557828227251   F   F   F
  0.2955313611175683  0.3794825008859988  0.0388921565772762   F   F   F
  0.6254873592728032  0.9499576153264400  0.1320861515409106   F   F   F
  0.7063418941412323  0.7943482474494772  0.2201040810409083   F   F   F
  0.8657230808985474  0.7055915708183349  0.1288086150363625   F   F   F
  0.6261967559749806  0.4601083651744915  0.1271035316954539   F   F   F
  0.2979026200972896  0.8756504404282666  0.3175724972499978   F   F   F
  0.3058183792080129  0.8681273535812224  0.0402965921590877   F   F   F
  0.6267113460374674  0.7146527937769136  0.1282718373772695   F   F   F
  0.2238985663333324  0.0282395707665799  0.2273103066590920   F   F   F
  0.5426930146679965  0.3810225683434538  0.0346170130500028   F   F   F
  0.3782499856614123  0.2053095451189151  0.1325912588909119   F   F   F
  0.1361840205679030  0.7049738332493618  0.1317829863318210   F   F   F
  0.7048694108137141  0.0502839582186283  0.2203633218772723   F   F   F
  0.7944179942663467  0.1308806786649228  0.3184521738545456   F   F   F
  0.5387958507496080  0.8730481855946692  0.3159120869681828   F   F   F
  0.7965506180334998  0.1231154660613569  0.0345346489227296   F   F   F
  0.5461463374708515  0.8704875427114658  0.0358963983818157   F   F   F
  0.2072223479328272  0.5428206522718000  0.2241705479818208   F   F   F
  0.9515132437870619  0.2967218890154157  0.2212922910363631   F   F   F
  0.8718576990639662  0.9638570180181532  0.1289765751136329   F   F   F
  0.7142109858849466  0.2900443576175675  0.2233456813409092   F   F   F
  0.4576441344000983  0.2914717494993724  0.2208305283954530   F   F   F
  0.8758100826533664  0.4565068959120069  0.1279466825136382   F   F   F
  0.1276916528005785  0.2069238958586865  0.1287633622272750   F   F   F
  0.7922909547091166  0.6217683887271619  0.0402482253999992   F   F   F
  0.2978485906287958  0.6254074402977565  0.0420896375636346   F   F   F
  0.3856750788553356  0.7114654717221427  0.1289187271227306   F   F   F
  0.3820764845414715  0.4516090485180371  0.1264952625681843   F   F   F
  0.7946583134511158  0.3777761115833584  0.3217171962681817   F   F   F
  0.7909247997136220  0.3772595911558838  0.0394562840909103   F   F   F
  0.9555996101362965  0.0529344377623957  0.2214324969818193   F   F   F
  0.4575573979143996  0.7971559299412050  0.2244088666727251   F   F   F
  0.2131500369795702  0.7976872161559072  0.2245790410590942   F   F   F
  0.4623985897484246  0.0302163017414401  0.2220026953545471   F   F   F
  0.0404182169924070  0.1257824181840092  0.4796512204590890   T   T   T
 
  0.00000000E+00  0.00000000E+00  0.00000000E+00
  0.00000000E+00  0.00000000E+00  0.00000000E+00
  0.00000000E+00  0.00000000E+00  0.00000000E+00
  0.00000000E+00  0.00000000E+00  0.00000000E+00
  0.00000000E+00  0.00000000E+00  0.00000000E+00
  0.00000000E+00  0.00000000E+00  0.00000000E+00
  0.00000000E+00  0.00000000E+00  0.00000000E+00
  0.00000000E+00  0.00000000E+00  0.00000000E+00
  0.00000000E+00  0.00000000E+00  0.00000000E+00
  0.00000000E+00  0.00000000E+00  0.00000000E+00
  0.00000000E+00  0.00000000E+00  0.00000000E+00
  0.00000000E+00  0.00000000E+00  0.00000000E+00
  0.00000000E+00  0.00000000E+00  0.00000000E+00
  0.00000000E+00  0.00000000E+00  0.00000000E+00
  0.00000000E+00  0.00000000E+00  0.00000000E+00
  0.00000000E+00  0.00000000E+00  0.00000000E+00
  0.00000000E+00  0.00000000E+00  0.00000000E+00
  0.00000000E+00  0.00000000E+00  0.00000000E+00
  0.00000000E+00  0.00000000E+00  0.00000000E+00
  0.00000000E+00  0.00000000E+00  0.00000000E+00
  0.00000000E+00  0.00000000E+00  0.00000000E+00
  0.00000000E+00  0.00000000E+00  0.00000000E+00
  0.00000000E+00  0.00000000E+00  0.00000000E+00
  0.00000000E+00  0.00000000E+00  0.00000000E+00
  0.00000000E+00  0.00000000E+00  0.00000000E+00
  0.00000000E+00  0.00000000E+00  0.00000000E+00
  0.00000000E+00  0.00000000E+00  0.00000000E+00
  0.00000000E+00  0.00000000E+00  0.00000000E+00
  0.00000000E+00  0.00000000E+00  0.00000000E+00
  0.00000000E+00  0.00000000E+00  0.00000000E+00
  0.00000000E+00  0.00000000E+00  0.00000000E+00
  0.00000000E+00  0.00000000E+00  0.00000000E+00
  0.00000000E+00  0.00000000E+00  0.00000000E+00
  0.00000000E+00  0.00000000E+00  0.00000000E+00
  0.00000000E+00  0.00000000E+00  0.00000000E+00
  0.00000000E+00  0.00000000E+00  0.00000000E+00
  0.00000000E+00  0.00000000E+00  0.00000000E+00
  0.00000000E+00  0.00000000E+00  0.00000000E+00
  0.00000000E+00  0.00000000E+00  0.00000000E+00
  0.00000000E+00  0.00000000E+00  0.00000000E+00
  0.00000000E+00  0.00000000E+00  0.00000000E+00
  0.00000000E+00  0.00000000E+00  0.00000000E+00
  0.00000000E+00  0.00000000E+00  0.00000000E+00
  0.00000000E+00  0.00000000E+00  0.00000000E+00
  0.00000000E+00  0.00000000E+00  0.00000000E+00
  0.00000000E+00  0.00000000E+00  0.00000000E+00
  0.00000000E+00  0.00000000E+00  0.00000000E+00
  0.00000000E+00  0.00000000E+00  0.00000000E+00
  0.00000000E+00  0.00000000E+00  0.00000000E+00
  0.00000000E+00  0.00000000E+00  0.00000000E+00
  0.00000000E+00  0.00000000E+00  0.00000000E+00
  0.00000000E+00  0.00000000E+00  0.00000000E+00
  0.00000000E+00  0.00000000E+00  0.00000000E+00
  0.00000000E+00  0.00000000E+00  0.00000000E+00
  0.00000000E+00  0.00000000E+00  0.00000000E+00
  0.00000000E+00  0.00000000E+00  0.00000000E+00
  0.00000000E+00  0.00000000E+00  0.00000000E+00
  0.00000000E+00  0.00000000E+00  0.00000000E+00
  0.00000000E+00  0.00000000E+00  0.00000000E+00
  0.00000000E+00  0.00000000E+00  0.00000000E+00
  0.00000000E+00  0.00000000E+00  0.00000000E+00
  0.00000000E+00  0.00000000E+00  0.00000000E+00
  0.00000000E+00  0.00000000E+00  0.00000000E+00
  0.00000000E+00  0.00000000E+00  0.00000000E+00
  0.00000000E+00  0.00000000E+00  0.00000000E+00
  0.00000000E+00  0.00000000E+00  0.00000000E+00
  0.00000000E+00  0.00000000E+00  0.00000000E+00
  0.00000000E+00  0.00000000E+00  0.00000000E+00
  0.00000000E+00  0.00000000E+00  0.00000000E+00
  0.00000000E+00  0.00000000E+00  0.00000000E+00
  0.00000000E+00  0.00000000E+00  0.00000000E+00
  0.00000000E+00  0.00000000E+00  0.00000000E+00
  0.00000000E+00  0.00000000E+00  0.00000000E+00
  0.00000000E+00  0.00000000E+00  0.00000000E+00
  0.00000000E+00  0.00000000E+00  0.00000000E+00
  0.00000000E+00  0.00000000E+00  0.00000000E+00
  0.00000000E+00  0.00000000E+00  0.00000000E+00
  0.00000000E+00  0.00000000E+00  0.00000000E+00
  0.00000000E+00  0.00000000E+00  0.00000000E+00
  0.00000000E+00  0.00000000E+00  0.00000000E+00
  0.00000000E+00  0.00000000E+00  0.00000000E+00
