10.56-high                              
   1.00000000000000     
    10.5600004195999997    0.0000000000000000    0.0000000000000000
     5.2800002097999998    9.1452286273999999    0.0000000000000000
     0.0000000000000000    0.0000000000000000   22.0000000000000000
   Pt   Fe   Co   Cu   Ni
    42    10     9    10     9
Direct
  0.7770801847566019  0.8686167004336024  0.3222562562921003
  0.0379985842744202  0.8692989476665862  0.3239028984175773
  0.0330542228826336  0.6188273066081844  0.3248585414380763
  0.0286661357295849  0.3689759853129397  0.3244314259255444
  0.2887991550847342  0.1084754093931886  0.3230829903368237
  0.2858021281213221  0.3696782342714623  0.3236358749995779
  0.8646877666183592  0.7035754884222171  0.1232181398605081
  0.8678832956771851  0.9520015129691536  0.4310043977449391
  0.1169142667350987  0.4535510181044967  0.4334878038116125
  0.1184908338002188  0.9528789858171511  0.4291225861445664
  0.8674014928209131  0.4521770128177592  0.4316152189045709
  0.3686786025683187  0.9508124168537435  0.4284610586959938
  0.8673844845223483  0.2033902269192293  0.4270555418598624
  0.1176320385287112  0.2022433767728665  0.4344749754130335
  0.6182255803443012  0.9512945504822478  0.4301454850550072
  0.8664396726488069  0.7033166501834616  0.4346857128102478
  0.3685141978972748  0.2012985248092378  0.4321894338636386
  0.3687498846798517  0.7045212788636142  0.4299184774080337
  0.6192770954464222  0.4537940286905692  0.4285345565756591
  0.1176975011232555  0.7031458928095071  0.4368575959477600
  0.6176892016001200  0.2032800309629327  0.4296509666652926
  0.5389161167824641  0.3746683200570978  0.3216487704827423
  0.5338614483935928  0.1184680292273011  0.3211581408083389
  0.5398416387473176  0.1173088401593117  0.0350190810179056
  0.1224682224846202  0.4479465607453634  0.1239734269463828
  0.0349140187538199  0.1175209395750045  0.3194817104441478
  0.0338546978034905  0.1269725317442491  0.0282521676190144
  0.1148810435587055  0.9588019180742580  0.1259613291830978
  0.3674250290494855  0.4536759940440724  0.4326610312074447
  0.4538181383834340  0.5309726896798718  0.2205853344764231
  0.6170271348008368  0.7024327970634621  0.4319610198497685
  0.9489207838941138  0.7837612136788710  0.2231379892164212
  0.7732034615149694  0.6209679276469313  0.3220779438751090
  0.2902549628143798  0.6229336450830667  0.3239404539707179
  0.3781659960381892  0.6999955671314181  0.1228892276710355
  0.2000687463524020  0.2840194446683770  0.2231423189021118
  0.6986371284137933  0.5449062265875854  0.2194443793273758
  0.2030551396339944  0.7923381777074975  0.2236137039435217
  0.4518548960084653  0.0222207138242385  0.2194112578334625
  0.6960529402566557  0.0435078455888952  0.2153397837655749
  0.7834933623661912  0.1234535168063450  0.3189213967133427
  0.9474823863013179  0.2816438798803070  0.2188684512769419
  0.7877750108028735  0.8644715652951362  0.0309419321074044
  0.0460877459743740  0.8606742792381737  0.0312533117330019
  0.0418647355687351  0.6173353075471646  0.0296767523696769
  0.6191765116004033  0.2157419680917941  0.1254588863800160
  0.3693791069039842  0.9515867868107437  0.1233810892257438
  0.0237549387295257  0.3764378447814570  0.0339492604089361
  0.8635869832493708  0.2094357775530947  0.1244631639310674
  0.9479059298044687  0.5362725134096319  0.2261818346055188
  0.5330092911619220  0.6225096434745196  0.3267370135616159
  0.2886950104127338  0.1145301110440247  0.0348736720512819
  0.5528748678269112  0.6109997016531533  0.0368670981716117
  0.2914362986693174  0.3734582125500470  0.0346025611341909
  0.6158380116989387  0.9404213000988839  0.1256405386959530
  0.6992953691448592  0.7848821746391682  0.2213491631529269
  0.6227786755968462  0.4501718226947108  0.1246648651833631
  0.2901857142395457  0.8660873762717262  0.3207148732235128
  0.2911732077066113  0.8701136869045102  0.0325275107994671
  0.6199115209081647  0.7067532280606446  0.1252875281047890
  0.2070139421143301  0.0303920131001303  0.2259189277667598
  0.5357938261908068  0.3746613699062024  0.0312628670989718
  0.3724354593912525  0.2018352543104499  0.1282779969315370
  0.1223269425024597  0.6990550075168749  0.1271461991379629
  0.5308840855664754  0.8633020811014586  0.3223610688238461
  0.7885905032168039  0.1183498143568544  0.0294839784768713
  0.5388299310887764  0.8616025744074427  0.0308566459118391
  0.2024348784259712  0.5351440444395563  0.2232597283696055
  0.8667129422905363  0.9564532186221625  0.1229968686863239
  0.7016457940119153  0.2869340451406157  0.2213326788514672
  0.4477121682779174  0.2895408489957657  0.2213745568476878
  0.8680431446508905  0.4478449304318849  0.1249044648428123
  0.1236464499109267  0.2016881174457034  0.1250543733219817
  0.7834771509936707  0.6123044112429026  0.0340329089747157
  0.2821999168586066  0.6150931415631308  0.0353284785555947
  0.3761860828152304  0.4446517982104707  0.1241379675230000
  0.7801491613674360  0.3741620202844541  0.3216102763764246
  0.7832638310703252  0.3710441885049949  0.0352637445704630
  0.9488461395911064  0.0379351662670723  0.2209216052274841
  0.4530053394522654  0.7843710998956217  0.2265148171632748
 
  0.00000000E+00  0.00000000E+00  0.00000000E+00
  0.00000000E+00  0.00000000E+00  0.00000000E+00
  0.00000000E+00  0.00000000E+00  0.00000000E+00
  0.00000000E+00  0.00000000E+00  0.00000000E+00
  0.00000000E+00  0.00000000E+00  0.00000000E+00
  0.00000000E+00  0.00000000E+00  0.00000000E+00
  0.00000000E+00  0.00000000E+00  0.00000000E+00
  0.00000000E+00  0.00000000E+00  0.00000000E+00
  0.00000000E+00  0.00000000E+00  0.00000000E+00
  0.00000000E+00  0.00000000E+00  0.00000000E+00
  0.00000000E+00  0.00000000E+00  0.00000000E+00
  0.00000000E+00  0.00000000E+00  0.00000000E+00
  0.00000000E+00  0.00000000E+00  0.00000000E+00
  0.00000000E+00  0.00000000E+00  0.00000000E+00
  0.00000000E+00  0.00000000E+00  0.00000000E+00
  0.00000000E+00  0.00000000E+00  0.00000000E+00
  0.00000000E+00  0.00000000E+00  0.00000000E+00
  0.00000000E+00  0.00000000E+00  0.00000000E+00
  0.00000000E+00  0.00000000E+00  0.00000000E+00
  0.00000000E+00  0.00000000E+00  0.00000000E+00
  0.00000000E+00  0.00000000E+00  0.00000000E+00
  0.00000000E+00  0.00000000E+00  0.00000000E+00
  0.00000000E+00  0.00000000E+00  0.00000000E+00
  0.00000000E+00  0.00000000E+00  0.00000000E+00
  0.00000000E+00  0.00000000E+00  0.00000000E+00
  0.00000000E+00  0.00000000E+00  0.00000000E+00
  0.00000000E+00  0.00000000E+00  0.00000000E+00
  0.00000000E+00  0.00000000E+00  0.00000000E+00
  0.00000000E+00  0.00000000E+00  0.00000000E+00
  0.00000000E+00  0.00000000E+00  0.00000000E+00
  0.00000000E+00  0.00000000E+00  0.00000000E+00
  0.00000000E+00  0.00000000E+00  0.00000000E+00
  0.00000000E+00  0.00000000E+00  0.00000000E+00
  0.00000000E+00  0.00000000E+00  0.00000000E+00
  0.00000000E+00  0.00000000E+00  0.00000000E+00
  0.00000000E+00  0.00000000E+00  0.00000000E+00
  0.00000000E+00  0.00000000E+00  0.00000000E+00
  0.00000000E+00  0.00000000E+00  0.00000000E+00
  0.00000000E+00  0.00000000E+00  0.00000000E+00
  0.00000000E+00  0.00000000E+00  0.00000000E+00
  0.00000000E+00  0.00000000E+00  0.00000000E+00
  0.00000000E+00  0.00000000E+00  0.00000000E+00
  0.00000000E+00  0.00000000E+00  0.00000000E+00
  0.00000000E+00  0.00000000E+00  0.00000000E+00
  0.00000000E+00  0.00000000E+00  0.00000000E+00
  0.00000000E+00  0.00000000E+00  0.00000000E+00
  0.00000000E+00  0.00000000E+00  0.00000000E+00
  0.00000000E+00  0.00000000E+00  0.00000000E+00
  0.00000000E+00  0.00000000E+00  0.00000000E+00
  0.00000000E+00  0.00000000E+00  0.00000000E+00
  0.00000000E+00  0.00000000E+00  0.00000000E+00
  0.00000000E+00  0.00000000E+00  0.00000000E+00
  0.00000000E+00  0.00000000E+00  0.00000000E+00
  0.00000000E+00  0.00000000E+00  0.00000000E+00
  0.00000000E+00  0.00000000E+00  0.00000000E+00
  0.00000000E+00  0.00000000E+00  0.00000000E+00
  0.00000000E+00  0.00000000E+00  0.00000000E+00
  0.00000000E+00  0.00000000E+00  0.00000000E+00
  0.00000000E+00  0.00000000E+00  0.00000000E+00
  0.00000000E+00  0.00000000E+00  0.00000000E+00
  0.00000000E+00  0.00000000E+00  0.00000000E+00
  0.00000000E+00  0.00000000E+00  0.00000000E+00
  0.00000000E+00  0.00000000E+00  0.00000000E+00
  0.00000000E+00  0.00000000E+00  0.00000000E+00
  0.00000000E+00  0.00000000E+00  0.00000000E+00
  0.00000000E+00  0.00000000E+00  0.00000000E+00
  0.00000000E+00  0.00000000E+00  0.00000000E+00
  0.00000000E+00  0.00000000E+00  0.00000000E+00
  0.00000000E+00  0.00000000E+00  0.00000000E+00
  0.00000000E+00  0.00000000E+00  0.00000000E+00
  0.00000000E+00  0.00000000E+00  0.00000000E+00
  0.00000000E+00  0.00000000E+00  0.00000000E+00
  0.00000000E+00  0.00000000E+00  0.00000000E+00
  0.00000000E+00  0.00000000E+00  0.00000000E+00
  0.00000000E+00  0.00000000E+00  0.00000000E+00
  0.00000000E+00  0.00000000E+00  0.00000000E+00
  0.00000000E+00  0.00000000E+00  0.00000000E+00
  0.00000000E+00  0.00000000E+00  0.00000000E+00
  0.00000000E+00  0.00000000E+00  0.00000000E+00
  0.00000000E+00  0.00000000E+00  0.00000000E+00
