10.56                                   
   1.00000000000000     
    10.5600004195999997    0.0000000000000000    0.0000000000000000
     5.2800002097999998    9.1452286273999999    0.0000000000000000
     0.0000000000000000    0.0000000000000000   22.0000000000000000
   Pt   Fe   Co   Cu   Ni   O 
    32    13    10    13    12     1
Selective dynamics
Direct
  0.7869192041382994  0.8782325098644533  0.3167433637411077   T   T   T
  0.0430312027826442  0.8824562912703581  0.3170103256098474   T   T   T
  0.2798213755368680  0.3802791455944833  0.3189279781982702   T   T   T
  0.8708266058581240  0.9604402652233388  0.4225247371080461   T   T   T
  0.1215491293864964  0.4638382618642116  0.4266568846576870   T   T   T
  0.1244459316920811  0.9568757791676753  0.4221754768634763   T   T   T
  0.8714442807548747  0.4643997049402302  0.4269284960597900   T   T   T
  0.3772203860844879  0.9586271136955455  0.4187062931691335   T   T   T
  0.8666104794413552  0.2156666312987231  0.4322077439610582   T   T   T
  0.1279498567045068  0.2149658828577252  0.4292124207536208   T   T   T
  0.6241267262387389  0.9602744323065148  0.4235219611681031   T   T   T
  0.8735425204941807  0.7110293022476297  0.4274019849799622   T   T   T
  0.3749916347919108  0.2095404633774716  0.4237325805861274   T   T   T
  0.3755054572471498  0.7113952132556722  0.4225697977705116   T   T   T
  0.6234903131136272  0.4629069667317686  0.4217963212193237   T   T   T
  0.1237551461868332  0.7089315940867619  0.4260465349868569   T   T   T
  0.6237774138487012  0.2109343758711079  0.4209782349449130   T   T   T
  0.5487687344990929  0.3753574370508284  0.3164742467793987   T   T   T
  0.5344647388501442  0.1244267165099803  0.3147230636176411   T   T   T
  0.5470002567308043  0.1235332521939583  0.0399417999772709   F   F   F
  0.1208089481832886  0.4601783015999317  0.1280394984818187   F   F   F
  0.0422311787282265  0.1374288833719129  0.3147439835984894   T   T   T
  0.0424414900706935  0.1302099981111695  0.0329802953681835   F   F   F
  0.1304832192178935  0.9579853651937356  0.1318324513636355   F   F   F
  0.3743259497383515  0.4613256980509290  0.4254415413979477   T   T   T
  0.4545409546936767  0.5457192756283078  0.2188518203000029   F   F   F
  0.6220372430416383  0.7112517312576450  0.4239111407305685   T   T   T
  0.9557150112739734  0.7901309279847197  0.2210448635636340   F   F   F
  0.7952151129183052  0.6210199929148169  0.3189317102965680   T   T   T
  0.2913280947096453  0.6307732698180261  0.3177500936020217   T   T   T
  0.2026302282546482  0.2805717472619946  0.2254649220954548   F   F   F
  0.7064516142104935  0.5493905794598390  0.2207507679909071   F   F   F
  0.0400938838354390  0.6301268410037824  0.3251229086067461   T   T   T
  0.7973180911857654  0.8616265572072663  0.0420760910772700   F   F   F
  0.0560985910286504  0.8657185943694543  0.0377408024136372   F   F   F
  0.0464128728304587  0.6281990126400245  0.0369911384090926   F   F   F
  0.6273755757405439  0.2222416784103771  0.1287505962318178   F   F   F
  0.3821141315863983  0.9550040284758836  0.1298830475227248   F   F   F
  0.0376090740338115  0.3796627300500767  0.3265869062087211   T   T   T
  0.0311405267529068  0.3816759960316460  0.0375046088681827   F   F   F
  0.8722404389362310  0.2153943248393162  0.1282949969590916   F   F   F
  0.9547121146441953  0.5451880757537140  0.2238905465227248   F   F   F
  0.2943334540529640  0.1183704353591204  0.3222485020460022   T   T   T
  0.5403274497418848  0.6297950166873381  0.3215613133853877   T   T   T
  0.2952537777580275  0.1193869715983666  0.0394092290045478   F   F   F
  0.5482511333458362  0.6253176515966246  0.0436557828227251   F   F   F
  0.2955313611175683  0.3794825008859988  0.0388921565772762   F   F   F
  0.6254873592728032  0.9499576153264400  0.1320861515409106   F   F   F
  0.7063418941412323  0.7943482474494772  0.2201040810409083   F   F   F
  0.8657230808985474  0.7055915708183349  0.1288086150363625   F   F   F
  0.6261967559749806  0.4601083651744915  0.1271035316954539   F   F   F
  0.2973262911584841  0.8756960355897142  0.3179527597947212   T   T   T
  0.3058183792080129  0.8681273535812224  0.0402965921590877   F   F   F
  0.6267113460374674  0.7146527937769136  0.1282718373772695   F   F   F
  0.2238985663333324  0.0282395707665799  0.2273103066590920   F   F   F
  0.5426930146679965  0.3810225683434538  0.0346170130500028   F   F   F
  0.3782499856614123  0.2053095451189151  0.1325912588909119   F   F   F
  0.1361840205679030  0.7049738332493618  0.1317829863318210   F   F   F
  0.7048694108137141  0.0502839582186283  0.2203633218772723   F   F   F
  0.7947650933210427  0.1308207600893686  0.3184868048791045   T   T   T
  0.5382045727354674  0.8729511516356520  0.3164011854386475   T   T   T
  0.7965506180334998  0.1231154660613569  0.0345346489227296   F   F   F
  0.5461463374708515  0.8704875427114658  0.0358963983818157   F   F   F
  0.2072223479328272  0.5428206522718000  0.2241705479818208   F   F   F
  0.9515132437870619  0.2967218890154157  0.2212922910363631   F   F   F
  0.8718576990639662  0.9638570180181532  0.1289765751136329   F   F   F
  0.7142109858849466  0.2900443576175675  0.2233456813409092   F   F   F
  0.4576441344000983  0.2914717494993724  0.2208305283954530   F   F   F
  0.8758100826533664  0.4565068959120069  0.1279466825136382   F   F   F
  0.1276916528005785  0.2069238958586865  0.1287633622272750   F   F   F
  0.7922909547091166  0.6217683887271619  0.0402482253999992   F   F   F
  0.2978485906287958  0.6254074402977565  0.0420896375636346   F   F   F
  0.3856750788553356  0.7114654717221427  0.1289187271227306   F   F   F
  0.3820764845414715  0.4516090485180371  0.1264952625681843   F   F   F
  0.7942140004467129  0.3764436941138018  0.3237305265939708   T   T   T
  0.7909247997136220  0.3772595911558838  0.0394562840909103   F   F   F
  0.9555996101362965  0.0529344377623957  0.2214324969818193   F   F   F
  0.4575573979143996  0.7971559299412050  0.2244088666727251   F   F   F
  0.2131500369795702  0.7976872161559072  0.2245790410590942   F   F   F
  0.4623985897484246  0.0302163017414401  0.2220026953545471   F   F   F
  0.0473820825079357  0.1164716603223362  0.4871993742334893   T   T   T
 
  0.00000000E+00  0.00000000E+00  0.00000000E+00
  0.00000000E+00  0.00000000E+00  0.00000000E+00
  0.00000000E+00  0.00000000E+00  0.00000000E+00
  0.00000000E+00  0.00000000E+00  0.00000000E+00
  0.00000000E+00  0.00000000E+00  0.00000000E+00
  0.00000000E+00  0.00000000E+00  0.00000000E+00
  0.00000000E+00  0.00000000E+00  0.00000000E+00
  0.00000000E+00  0.00000000E+00  0.00000000E+00
  0.00000000E+00  0.00000000E+00  0.00000000E+00
  0.00000000E+00  0.00000000E+00  0.00000000E+00
  0.00000000E+00  0.00000000E+00  0.00000000E+00
  0.00000000E+00  0.00000000E+00  0.00000000E+00
  0.00000000E+00  0.00000000E+00  0.00000000E+00
  0.00000000E+00  0.00000000E+00  0.00000000E+00
  0.00000000E+00  0.00000000E+00  0.00000000E+00
  0.00000000E+00  0.00000000E+00  0.00000000E+00
  0.00000000E+00  0.00000000E+00  0.00000000E+00
  0.00000000E+00  0.00000000E+00  0.00000000E+00
  0.00000000E+00  0.00000000E+00  0.00000000E+00
  0.00000000E+00  0.00000000E+00  0.00000000E+00
  0.00000000E+00  0.00000000E+00  0.00000000E+00
  0.00000000E+00  0.00000000E+00  0.00000000E+00
  0.00000000E+00  0.00000000E+00  0.00000000E+00
  0.00000000E+00  0.00000000E+00  0.00000000E+00
  0.00000000E+00  0.00000000E+00  0.00000000E+00
  0.00000000E+00  0.00000000E+00  0.00000000E+00
  0.00000000E+00  0.00000000E+00  0.00000000E+00
  0.00000000E+00  0.00000000E+00  0.00000000E+00
  0.00000000E+00  0.00000000E+00  0.00000000E+00
  0.00000000E+00  0.00000000E+00  0.00000000E+00
  0.00000000E+00  0.00000000E+00  0.00000000E+00
  0.00000000E+00  0.00000000E+00  0.00000000E+00
  0.00000000E+00  0.00000000E+00  0.00000000E+00
  0.00000000E+00  0.00000000E+00  0.00000000E+00
  0.00000000E+00  0.00000000E+00  0.00000000E+00
  0.00000000E+00  0.00000000E+00  0.00000000E+00
  0.00000000E+00  0.00000000E+00  0.00000000E+00
  0.00000000E+00  0.00000000E+00  0.00000000E+00
  0.00000000E+00  0.00000000E+00  0.00000000E+00
  0.00000000E+00  0.00000000E+00  0.00000000E+00
  0.00000000E+00  0.00000000E+00  0.00000000E+00
  0.00000000E+00  0.00000000E+00  0.00000000E+00
  0.00000000E+00  0.00000000E+00  0.00000000E+00
  0.00000000E+00  0.00000000E+00  0.00000000E+00
  0.00000000E+00  0.00000000E+00  0.00000000E+00
  0.00000000E+00  0.00000000E+00  0.00000000E+00
  0.00000000E+00  0.00000000E+00  0.00000000E+00
  0.00000000E+00  0.00000000E+00  0.00000000E+00
  0.00000000E+00  0.00000000E+00  0.00000000E+00
  0.00000000E+00  0.00000000E+00  0.00000000E+00
  0.00000000E+00  0.00000000E+00  0.00000000E+00
  0.00000000E+00  0.00000000E+00  0.00000000E+00
  0.00000000E+00  0.00000000E+00  0.00000000E+00
  0.00000000E+00  0.00000000E+00  0.00000000E+00
  0.00000000E+00  0.00000000E+00  0.00000000E+00
  0.00000000E+00  0.00000000E+00  0.00000000E+00
  0.00000000E+00  0.00000000E+00  0.00000000E+00
  0.00000000E+00  0.00000000E+00  0.00000000E+00
  0.00000000E+00  0.00000000E+00  0.00000000E+00
  0.00000000E+00  0.00000000E+00  0.00000000E+00
  0.00000000E+00  0.00000000E+00  0.00000000E+00
  0.00000000E+00  0.00000000E+00  0.00000000E+00
  0.00000000E+00  0.00000000E+00  0.00000000E+00
  0.00000000E+00  0.00000000E+00  0.00000000E+00
  0.00000000E+00  0.00000000E+00  0.00000000E+00
  0.00000000E+00  0.00000000E+00  0.00000000E+00
  0.00000000E+00  0.00000000E+00  0.00000000E+00
  0.00000000E+00  0.00000000E+00  0.00000000E+00
  0.00000000E+00  0.00000000E+00  0.00000000E+00
  0.00000000E+00  0.00000000E+00  0.00000000E+00
  0.00000000E+00  0.00000000E+00  0.00000000E+00
  0.00000000E+00  0.00000000E+00  0.00000000E+00
  0.00000000E+00  0.00000000E+00  0.00000000E+00
  0.00000000E+00  0.00000000E+00  0.00000000E+00
  0.00000000E+00  0.00000000E+00  0.00000000E+00
  0.00000000E+00  0.00000000E+00  0.00000000E+00
  0.00000000E+00  0.00000000E+00  0.00000000E+00
  0.00000000E+00  0.00000000E+00  0.00000000E+00
  0.00000000E+00  0.00000000E+00  0.00000000E+00
  0.00000000E+00  0.00000000E+00  0.00000000E+00
  0.00000000E+00  0.00000000E+00  0.00000000E+00
