10.96                                   
   1.00000000000000     
    10.9600000381000005    0.0000000000000000    0.0000000000000000
     5.4800000191000002    9.4916384585000007    0.0000000000000000
     0.0000000000000000    0.0000000000000000   22.0000000000000000
   Pt   Fe   Co   Cu   Ni
    32    13    10    13    12
Direct
  0.7860871788130094  0.8797828081165892  0.3132588430724214
  0.0431641130731335  0.8811324764173704  0.3102519983600524
  0.2790497713454477  0.3796816828835529  0.3163268977310952
  0.8744724226891947  0.9637441195167198  0.4152633367754492
  0.1180774322094258  0.4652615205347687  0.4198918487131673
  0.1252747423322606  0.9606892993633347  0.4144056629940994
  0.8751066277925909  0.4576130968606974  0.4200342014838987
  0.3734976091734212  0.9600228048132073  0.4151940008839435
  0.8733539457662204  0.2108822378099042  0.4138806410113904
  0.1263701438272526  0.2123683982943239  0.4160840524024789
  0.6247813611122083  0.9593447154982466  0.4169233251698056
  0.8735389160354964  0.7121755953199153  0.4194964467204451
  0.3752459211722710  0.2075903408389861  0.4179864596805906
  0.3761003450694882  0.7127899393513712  0.4169324658142202
  0.6262685428183028  0.4621885945814853  0.4170413000921868
  0.1231036722466844  0.7107718280282028  0.4184508648153565
  0.6248436667758633  0.2099755336509463  0.4157217558518567
  0.5475701677977015  0.3768053163595499  0.3151869004048554
  0.5337432754722964  0.1253269715069262  0.3124060036761472
  0.5522125408288234  0.1229980439690551  0.0492007837807999
  0.1179447475157784  0.4553776451878451  0.1279299605928665
  0.0464495678694745  0.1348492878738312  0.3117065869343458
  0.0331546293129230  0.1349486531165151  0.0377446314221808
  0.1316392841248652  0.9574759255117897  0.1340278733999407
  0.3733378944708530  0.4610189797023553  0.4187781416405174
  0.4566663465059559  0.5492648756310953  0.2193267658185563
  0.6220789942868614  0.7112022639715061  0.4178481659322361
  0.9558082579090299  0.7831430855639462  0.2183892191641965
  0.7973945448230823  0.6233119915470103  0.3173869951131366
  0.2891384546416600  0.6309456985117502  0.3152259691607949
  0.1986792080514506  0.2771687989613112  0.2254811289210441
  0.7045827475173727  0.5523289943746289  0.2213619481162024
  0.0406457744373420  0.6325725572039852  0.3207468882548699
  0.7920397940588897  0.8619624074887555  0.0511947968209989
  0.0526981245032379  0.8624210274664822  0.0444735392440422
  0.0457035805784792  0.6408036659247773  0.0458596178833879
  0.6280262762683377  0.2294732051188724  0.1337968902665302
  0.3825060135987576  0.9534483106524255  0.1327341964002451
  0.0349713469374163  0.3841311354866347  0.3214221027395308
  0.0161929607456954  0.3818764830392983  0.0412025563989561
  0.8704299207425175  0.2168907108674762  0.1317857703389693
  0.9563404382449207  0.5414389604053765  0.2237078816551540
  0.2986483960390405  0.1152882418630976  0.3190475016933794
  0.5412481340157720  0.6272237614401430  0.3201113958694426
  0.2929366193417768  0.1152265724656733  0.0453832930515051
  0.5520103083128705  0.6233459614529241  0.0478800615067273
  0.3057569488878735  0.3802645026943916  0.0468428708377345
  0.6239564555154591  0.9453132092922634  0.1363931434767448
  0.7083597009655045  0.7902410750617174  0.2210134316645318
  0.8605432662272322  0.6969997948945532  0.1321407462189686
  0.6280822250973122  0.4576845886504226  0.1300764273484180
  0.2973725725510811  0.8743618911495974  0.3171408619612666
  0.3062668485031482  0.8731072350829926  0.0445594179639653
  0.6226125853190676  0.7181745901932884  0.1307167480919722
  0.2304623798564736  0.0242330841823383  0.2276022954313243
  0.5428213397603003  0.3783856650797824  0.0401873396767654
  0.3772698501755679  0.2056045922454159  0.1374041287415198
  0.1480591264593387  0.7031483988286013  0.1372085456592402
  0.7035999555250799  0.0531163182034055  0.2207213082320786
  0.7934041921565438  0.1287882764691302  0.3142596234255209
  0.5399979877270716  0.8718278399010756  0.3162682617183006
  0.7916566268097268  0.1278317223838162  0.0406717152152836
  0.5477391611298082  0.8745077200459929  0.0407165425410274
  0.2081864432268546  0.5393639650816112  0.2229058860857022
  0.9479545332595973  0.3025804781311709  0.2228709549163733
  0.8695284713279031  0.9706931983726921  0.1330532267218976
  0.7178726439596778  0.2936926343423614  0.2256009570884661
  0.4565257253247855  0.2958654421012817  0.2224053839011747
  0.8724899802023306  0.4567009542554247  0.1303056939181383
  0.1243640075812184  0.2032220342569889  0.1319550582481302
  0.7873792025456575  0.6247287542780774  0.0440385979241913
  0.2993238400764895  0.6211331967085290  0.0480245963695014
  0.3856511081383031  0.7159506384295098  0.1307995094089231
  0.3847156394087298  0.4515386979680708  0.1311039896938394
  0.7926183723176751  0.3834320068428920  0.3193068422006522
  0.7893358288445014  0.3732859221096290  0.0438327165333993
  0.9536690361920419  0.0590088832495943  0.2213364501536284
  0.4606923424515264  0.7960359873798288  0.2256473434851393
  0.2223569724675051  0.7974698432955278  0.2249389915040770
  0.4608302578031527  0.0261812332933573  0.2241487908680872
 
  0.00000000E+00  0.00000000E+00  0.00000000E+00
  0.00000000E+00  0.00000000E+00  0.00000000E+00
  0.00000000E+00  0.00000000E+00  0.00000000E+00
  0.00000000E+00  0.00000000E+00  0.00000000E+00
  0.00000000E+00  0.00000000E+00  0.00000000E+00
  0.00000000E+00  0.00000000E+00  0.00000000E+00
  0.00000000E+00  0.00000000E+00  0.00000000E+00
  0.00000000E+00  0.00000000E+00  0.00000000E+00
  0.00000000E+00  0.00000000E+00  0.00000000E+00
  0.00000000E+00  0.00000000E+00  0.00000000E+00
  0.00000000E+00  0.00000000E+00  0.00000000E+00
  0.00000000E+00  0.00000000E+00  0.00000000E+00
  0.00000000E+00  0.00000000E+00  0.00000000E+00
  0.00000000E+00  0.00000000E+00  0.00000000E+00
  0.00000000E+00  0.00000000E+00  0.00000000E+00
  0.00000000E+00  0.00000000E+00  0.00000000E+00
  0.00000000E+00  0.00000000E+00  0.00000000E+00
  0.00000000E+00  0.00000000E+00  0.00000000E+00
  0.00000000E+00  0.00000000E+00  0.00000000E+00
  0.00000000E+00  0.00000000E+00  0.00000000E+00
  0.00000000E+00  0.00000000E+00  0.00000000E+00
  0.00000000E+00  0.00000000E+00  0.00000000E+00
  0.00000000E+00  0.00000000E+00  0.00000000E+00
  0.00000000E+00  0.00000000E+00  0.00000000E+00
  0.00000000E+00  0.00000000E+00  0.00000000E+00
  0.00000000E+00  0.00000000E+00  0.00000000E+00
  0.00000000E+00  0.00000000E+00  0.00000000E+00
  0.00000000E+00  0.00000000E+00  0.00000000E+00
  0.00000000E+00  0.00000000E+00  0.00000000E+00
  0.00000000E+00  0.00000000E+00  0.00000000E+00
  0.00000000E+00  0.00000000E+00  0.00000000E+00
  0.00000000E+00  0.00000000E+00  0.00000000E+00
  0.00000000E+00  0.00000000E+00  0.00000000E+00
  0.00000000E+00  0.00000000E+00  0.00000000E+00
  0.00000000E+00  0.00000000E+00  0.00000000E+00
  0.00000000E+00  0.00000000E+00  0.00000000E+00
  0.00000000E+00  0.00000000E+00  0.00000000E+00
  0.00000000E+00  0.00000000E+00  0.00000000E+00
  0.00000000E+00  0.00000000E+00  0.00000000E+00
  0.00000000E+00  0.00000000E+00  0.00000000E+00
  0.00000000E+00  0.00000000E+00  0.00000000E+00
  0.00000000E+00  0.00000000E+00  0.00000000E+00
  0.00000000E+00  0.00000000E+00  0.00000000E+00
  0.00000000E+00  0.00000000E+00  0.00000000E+00
  0.00000000E+00  0.00000000E+00  0.00000000E+00
  0.00000000E+00  0.00000000E+00  0.00000000E+00
  0.00000000E+00  0.00000000E+00  0.00000000E+00
  0.00000000E+00  0.00000000E+00  0.00000000E+00
  0.00000000E+00  0.00000000E+00  0.00000000E+00
  0.00000000E+00  0.00000000E+00  0.00000000E+00
  0.00000000E+00  0.00000000E+00  0.00000000E+00
  0.00000000E+00  0.00000000E+00  0.00000000E+00
  0.00000000E+00  0.00000000E+00  0.00000000E+00
  0.00000000E+00  0.00000000E+00  0.00000000E+00
  0.00000000E+00  0.00000000E+00  0.00000000E+00
  0.00000000E+00  0.00000000E+00  0.00000000E+00
  0.00000000E+00  0.00000000E+00  0.00000000E+00
  0.00000000E+00  0.00000000E+00  0.00000000E+00
  0.00000000E+00  0.00000000E+00  0.00000000E+00
  0.00000000E+00  0.00000000E+00  0.00000000E+00
  0.00000000E+00  0.00000000E+00  0.00000000E+00
  0.00000000E+00  0.00000000E+00  0.00000000E+00
  0.00000000E+00  0.00000000E+00  0.00000000E+00
  0.00000000E+00  0.00000000E+00  0.00000000E+00
  0.00000000E+00  0.00000000E+00  0.00000000E+00
  0.00000000E+00  0.00000000E+00  0.00000000E+00
  0.00000000E+00  0.00000000E+00  0.00000000E+00
  0.00000000E+00  0.00000000E+00  0.00000000E+00
  0.00000000E+00  0.00000000E+00  0.00000000E+00
  0.00000000E+00  0.00000000E+00  0.00000000E+00
  0.00000000E+00  0.00000000E+00  0.00000000E+00
  0.00000000E+00  0.00000000E+00  0.00000000E+00
  0.00000000E+00  0.00000000E+00  0.00000000E+00
  0.00000000E+00  0.00000000E+00  0.00000000E+00
  0.00000000E+00  0.00000000E+00  0.00000000E+00
  0.00000000E+00  0.00000000E+00  0.00000000E+00
  0.00000000E+00  0.00000000E+00  0.00000000E+00
  0.00000000E+00  0.00000000E+00  0.00000000E+00
  0.00000000E+00  0.00000000E+00  0.00000000E+00
  0.00000000E+00  0.00000000E+00  0.00000000E+00
