Pt   H                                  
   1.00000000000000     
    11.2227001190000006    0.0000000000000000    0.0000000000000000
     5.6113500595000003    9.7191434021000003    0.0000000000000000
     0.0000000000000000    0.0000000000000000   22.0000000000000000
   Pt   H 
    80    17
Direct
  0.7856316617528584  0.8692644072971591  0.3261990702746593
  0.0359765854028475  0.8686082180081163  0.3265911080443661
  0.0361287033501834  0.6188689758722845  0.3263160818832835
  0.7849771396357256  0.8689717995310591  0.0215417375048288
  0.0350127830099093  0.8688508575898309  0.0216969491158164
  0.0351866493696352  0.6189014992926631  0.0215899309259980
  0.6183098686128414  0.2024327094233899  0.1248355344890240
  0.3680312365667417  0.9523865511793792  0.1249546396138333
  0.0357740586536003  0.3689407570128372  0.3266890260414694
  0.0354273950038644  0.3681095093136180  0.0216927131164404
  0.8683169359628038  0.2023700476042244  0.1251098535886242
  0.9522061661226446  0.5350902806347251  0.2249219270065651
  0.2853679916297056  0.1193466498411147  0.3266734285871044
  0.5353379416083034  0.6184970114904689  0.3279088764096216
  0.2863183654802368  0.3697973268664583  0.3262251820857464
  0.2840003835857865  0.1194109638569374  0.0217473529418959
  0.5347740848782465  0.6185898925169518  0.0213233736725483
  0.2846596463806693  0.3686081600889055  0.0214169924987965
  0.6182118759552533  0.9523192973837298  0.1247991991440825
  0.7018388514774911  0.7854531411401715  0.2248205499959638
  0.8684553266471424  0.7020915027379928  0.1247607986155942
  0.6185969040650843  0.4521540213979874  0.1248918036310652
  0.2869687626235459  0.8664531259556824  0.3274450243562315
  0.2848637881735908  0.8694446301729636  0.0214405494754663
  0.6182563580174113  0.7021818467767718  0.1247195888850239
  0.2024543388483969  0.0338449388540594  0.2261165242930305
  0.8696180494806578  0.9530925368993001  0.4322618183094765
  0.1210400668003008  0.4530585192356590  0.4321428430402606
  0.1196882648320789  0.9528055420751049  0.4326823706436544
  0.8699186065809512  0.4528257222132447  0.4323025075701837
  0.3693719633257612  0.9536059574193387  0.4323113479509882
  0.8687807699119420  0.2037223633793559  0.4326999077685714
  0.1194627886964007  0.2030178707799719  0.4323399158847430
  0.6195776270329174  0.9540453378410260  0.4320581733334045
  0.8705734835882919  0.7029023096668631  0.4320781886576890
  0.3696384087983957  0.2045922204967404  0.4321732122439679
  0.3708976606603350  0.7020521187351586  0.4353370540660672
  0.6167089526070487  0.4561811720731985  0.4379116027755472
  0.1215280842366475  0.7022627910690212  0.4324276791348302
  0.6186386599506724  0.2051711265534018  0.4323523817962307
  0.5349420839386432  0.3707906775320942  0.3278947795582633
  0.5349165904994820  0.3694487540449899  0.0214489971601412
  0.5353874419345784  0.1196431779920578  0.3263087172625137
  0.5350253215890212  0.1190626071518750  0.0215796719144001
  0.8686046185035122  0.4517778358539928  0.1249735757144016
  0.1184432964731242  0.4520776286959159  0.1248568772618245
  0.0352724130725372  0.1188312125027633  0.3269870757088006
  0.0354994793949490  0.1194592643687631  0.0219970743984259
  0.1185231500013468  0.9521177229513861  0.1250875601803963
  0.3714544564616167  0.4553022703452351  0.4340488012209496
  0.4519633189290329  0.5356480254556948  0.2254865173972531
  0.6199236800721486  0.7038372872778457  0.4311727024172062
  0.3683123467484094  0.2022971345342773  0.1248215445501325
  0.1182476986481237  0.2020587899088299  0.1260148270397586
  0.9519244967174348  0.7855004198735080  0.2249189042445858
  0.7861197580920103  0.6187724237048866  0.3261719109975632
  0.2870781654163300  0.6183062700843425  0.3276667301845425
  0.7847585994722384  0.6189155368865493  0.0217059255094331
  0.2856414946192212  0.6188962129621663  0.0214978035425181
  0.3683119213418334  0.7024780334508255  0.1248414520509327
  0.3682550159196238  0.4520734202783395  0.1247080710500252
  0.2020696238340200  0.2856939145853217  0.2253758641804330
  0.7822112269684809  0.3708962501748624  0.3278915777204046
  0.7853936451331455  0.3688063191001549  0.0214454092206373
  0.9518342594153330  0.0355690817421060  0.2252851878575565
  0.4523247918848198  0.7847183568451440  0.2252495916845675
  0.7011452788758421  0.5359282641188575  0.2252924931644625
  0.2022273199904546  0.7848148015374923  0.2253645804918590
  0.4513804361654565  0.0359753807807173  0.2249120110970847
  0.1185241235290473  0.7021950641340620  0.1248107848572266
  0.7018301610927636  0.0357224974302797  0.2249123857087710
  0.7850423603481084  0.1196062779881483  0.3266257467459923
  0.5352352291055544  0.8697175623242656  0.3261243234336572
  0.7849214536791084  0.1189919488088224  0.0217830788246798
  0.5350004568576137  0.8688372948980180  0.0216232896390494
  0.2022858657820370  0.5361449135105265  0.2250936214537994
  0.9501034530751551  0.2861510879610609  0.2262118482330112
  0.8684745219984029  0.9522370086759503  0.1248731715146215
  0.7012177939791595  0.2859652276207927  0.2254369372668493
  0.4524748170741055  0.2860702179642552  0.2251379812347098
  0.4501109945744618  0.5321174613925816  0.5105415249195412
  0.4920900246548699  0.5619381466184633  0.5284816758322293
  0.7093645566484803  0.5413353141552859  0.4741457478504666
  0.2001556502870397  0.7886159623552470  0.4743952918983362
  0.4576952272806666  0.7916322056159387  0.4737626886447118
  0.7027480635677172  0.7862431049901297  0.4725004155423329
  0.9532741202394126  0.7856308804843716  0.4727791303908149
  0.2044860334952675  0.5349965766556387  0.4741302794238113
  0.9537726056925893  0.5361232420451820  0.4727005514927279
  0.2028352043545679  0.2862679392381256  0.4729225052433726
  0.4515281703324426  0.2879175320802422  0.4740585989498730
  0.7054315269342852  0.2833688149519778  0.4744808308529254
  0.9520122530972842  0.2864140860068741  0.4733690711640708
  0.2028711942221672  0.0354987292452855  0.4733650095114331
  0.4528460782184564  0.0372032135183308  0.4726985460952674
  0.7022864210203177  0.0366715409192176  0.4727406548566963
  0.9525007569331360  0.0358781354142954  0.4731600573412192
 
             NaN             NaN             NaN
             NaN             NaN             NaN
             NaN             NaN             NaN
             NaN             NaN             NaN
             NaN             NaN             NaN
             NaN             NaN             NaN
             NaN             NaN             NaN
             NaN             NaN             NaN
             NaN             NaN             NaN
             NaN             NaN             NaN
             NaN             NaN             NaN
             NaN             NaN             NaN
             NaN             NaN             NaN
             NaN             NaN             NaN
             NaN             NaN             NaN
             NaN             NaN             NaN
             NaN             NaN             NaN
             NaN             NaN             NaN
             NaN             NaN             NaN
             NaN             NaN             NaN
             NaN             NaN             NaN
             NaN             NaN             NaN
             NaN             NaN             NaN
             NaN             NaN             NaN
             NaN             NaN             NaN
             NaN             NaN             NaN
             NaN             NaN             NaN
             NaN             NaN             NaN
             NaN             NaN             NaN
             NaN             NaN             NaN
             NaN             NaN             NaN
             NaN             NaN             NaN
             NaN             NaN             NaN
             NaN             NaN             NaN
             NaN             NaN             NaN
             NaN             NaN             NaN
             NaN             NaN             NaN
             NaN             NaN             NaN
             NaN             NaN             NaN
             NaN             NaN             NaN
             NaN             NaN             NaN
             NaN             NaN             NaN
             NaN             NaN             NaN
             NaN             NaN             NaN
             NaN             NaN             NaN
             NaN             NaN             NaN
             NaN             NaN             NaN
             NaN             NaN             NaN
             NaN             NaN             NaN
             NaN             NaN             NaN
             NaN             NaN             NaN
             NaN             NaN             NaN
             NaN             NaN             NaN
             NaN             NaN             NaN
             NaN             NaN             NaN
             NaN             NaN             NaN
             NaN             NaN             NaN
             NaN             NaN             NaN
             NaN             NaN             NaN
             NaN             NaN             NaN
             NaN             NaN             NaN
             NaN             NaN             NaN
             NaN             NaN             NaN
             NaN             NaN             NaN
             NaN             NaN             NaN
             NaN             NaN             NaN
             NaN             NaN             NaN
             NaN             NaN             NaN
             NaN             NaN             NaN
             NaN             NaN             NaN
             NaN             NaN             NaN
             NaN             NaN             NaN
             NaN             NaN             NaN
             NaN             NaN             NaN
             NaN             NaN             NaN
             NaN             NaN             NaN
             NaN             NaN             NaN
             NaN             NaN             NaN
             NaN             NaN             NaN
             NaN             NaN             NaN
             NaN             NaN             NaN
             NaN             NaN             NaN
             NaN             NaN             NaN
             NaN             NaN             NaN
             NaN             NaN             NaN
             NaN             NaN             NaN
             NaN             NaN             NaN
             NaN             NaN             NaN
             NaN             NaN             NaN
             NaN             NaN             NaN
             NaN             NaN             NaN
             NaN             NaN             NaN
             NaN             NaN             NaN
             NaN             NaN             NaN
             NaN             NaN             NaN
             NaN             NaN             NaN
             NaN             NaN             NaN
