10.76                                   
   1.00000000000000     
    10.7600002288999992    0.0000000000000000    0.0000000000000000
     5.3800001143999996    9.3184335428999994    0.0000000000000000
     0.0000000000000000    0.0000000000000000   22.0000000000000000
   Pt   Fe   Co   Cu   Ni   H 
    32    13    10    13    12     1
Selective dynamics
Direct
  0.7863445879721968  0.8792741668440015  0.3160883986898071   T   T   T
  0.0428268261237872  0.8823418158387020  0.3136522990626475   T   T   T
  0.2801326580639366  0.3800661119612579  0.3178258340847282   T   T   T
  0.8771781067037465  0.9633708754161869  0.4200362876223604   T   T   T
  0.1224636234499845  0.4634127052148796  0.4241200796239316   T   T   T
  0.1270080516473917  0.9609099714886847  0.4182214442744132   T   T   T
  0.8774855366831882  0.4578102541933894  0.4235447747134976   T   T   T
  0.3728085581684290  0.9618374248897595  0.4170566173168326   T   T   T
  0.8755632997232872  0.2112800714266869  0.4171012011523048   T   T   T
  0.1273468884116121  0.2120647482033248  0.4191488142585547   T   T   T
  0.6254253419275148  0.9630601426970359  0.4251319135364516   T   T   T
  0.8787767663069158  0.7098690546187636  0.4223100397650988   T   T   T
  0.3751879975112202  0.2106854475063636  0.4211685315978599   T   T   T
  0.3775364332461463  0.7120765587664286  0.4198376335480035   T   T   T
  0.6278749269170329  0.4629587991836162  0.4188806410716465   T   T   T
  0.1261220398389582  0.7111486949863998  0.4228032332084777   T   T   T
  0.6272126333502184  0.2098220457167799  0.4187275149150415   T   T   T
  0.5490157912112542  0.3750894147863046  0.3161726383008956   T   T   T
  0.5356094078735150  0.1235634903556856  0.3143661177288744   T   T   T
  0.5479267310515752  0.1232892167026662  0.0438354440136379   F   F   F
  0.1193453373624038  0.4597245861096511  0.1287449583545452   F   F   F
  0.0450781212952568  0.1361162415696149  0.3129758809432649   T   T   T
  0.0408040871490059  0.1311498911028011  0.0353636510090922   F   F   F
  0.1313044783091684  0.9579990200822763  0.1330364317545474   F   F   F
  0.3762859350831756  0.4611398895311327  0.4224470447479002   T   T   T
  0.4554859481779090  0.5468658091233323  0.2192060685090880   F   F   F
  0.6256126457402299  0.7090992820328975  0.4255854349303035   T   T   T
  0.9556912742960080  0.7873506540045199  0.2205031624227303   F   F   F
  0.7939653116695971  0.6239877321147110  0.3186501126641065   T   T   T
  0.2908822425673017  0.6306587120751803  0.3169858605873423   T   T   T
  0.2012375110298592  0.2788553671104808  0.2253960259409098   F   F   F
  0.7053132991228281  0.5507170639758527  0.2210761596681792   F   F   F
  0.0409028337128861  0.6315962574875490  0.3234159695620679   T   T   T
  0.7954783082485406  0.8611238289308787  0.0457152006545485   F   F   F
  0.0575212550804594  0.8641789042575354  0.0409535455772740   F   F   F
  0.0456084242478454  0.6318179268537989  0.0403526911181800   F   F   F
  0.6278305598418541  0.2253448316750593  0.1304824814136367   F   F   F
  0.3825655044668324  0.9535177246255060  0.1314263805090903   F   F   F
  0.0355457812247170  0.3844533329191137  0.3228440290229591   T   T   T
  0.0260615386681806  0.3810885896595479  0.0403102601590888   F   F   F
  0.8723711723195962  0.2151287605659249  0.1298020397499968   F   F   F
  0.9547335530667951  0.5442973253336660  0.2239073203045479   F   F   F
  0.2990099155768153  0.1147392951283265  0.3198039579246245   T   T   T
  0.5414825879065311  0.6282113632907019  0.3207049148504463   T   T   T
  0.2949751593484535  0.1163516447918553  0.0426677318909086   F   F   F
  0.5497857468387153  0.6253450526821567  0.0461306137818198   F   F   F
  0.2969566052389681  0.3823652154298856  0.0422564458500005   F   F   F
  0.6249458186425088  0.9474812472239122  0.1336582942090914   F   F   F
  0.7073783254117956  0.7925741239553403  0.2204095770727292   F   F   F
  0.8643637461216613  0.7029606029106716  0.1299859167545421   F   F   F
  0.6269787784890184  0.4592523668595234  0.1284489634045443   F   F   F
  0.2992163864978873  0.8739882345788952  0.3176748396914041   T   T   T
  0.3071779756071464  0.8685022953526769  0.0426992808000008   F   F   F
  0.6259846636109003  0.7158394751425234  0.1294188900181794   F   F   F
  0.2263697746008830  0.0265762640963061  0.2277658617318181   F   F   F
  0.5422786776051893  0.3823649547208277  0.0372911256318176   F   F   F
  0.3770236217526488  0.2055569132388655  0.1342270989136338   F   F   F
  0.1386540919502792  0.7046558401978444  0.1337982367227255   F   F   F
  0.7044384733601134  0.0510072048817847  0.2203902870818197   F   F   F
  0.7936167739091513  0.1292559327794489  0.3155025248357827   T   T   T
  0.5404038683392429  0.8718353115875851  0.3171971434565330   T   T   T
  0.7964640097093465  0.1229298524077365  0.0375270880681811   F   F   F
  0.5453781290973083  0.8713405885677545  0.0381163191590943   F   F   F
  0.2079968609143066  0.5423612536627189  0.2238731068772708   F   F   F
  0.9502517692622092  0.2988565663079612  0.2218493459999991   F   F   F
  0.8721394008204939  0.9645445904637313  0.1305576548363661   F   F   F
  0.7160608076910577  0.2907946614444299  0.2240872102636331   F   F   F
  0.4572063303243468  0.2931434561747039  0.2211508691681843   F   F   F
  0.8746667074118193  0.4568803762026974  0.1294246137636392   F   F   F
  0.1274815274220984  0.2065411393920868  0.1296872253999979   F   F   F
  0.7912047277638123  0.6211097396096008  0.0422462150454521   F   F   F
  0.2978218131850454  0.6268259632060662  0.0450505997681816   F   F   F
  0.3863157406502253  0.7128529518634892  0.1302027574090943   F   F   F
  0.3822704936785541  0.4518886614165325  0.1282433244909100   F   F   F
  0.7941896549113460  0.3809240883587603  0.3193627305383672   T   T   T
  0.7914440065378301  0.3765222275125097  0.0417798686954569   F   F   F
  0.9554123354930013  0.0542452715977291  0.2215384381590937   F   F   F
  0.4587321815542893  0.7962888195681401  0.2253854676772704   F   F   F
  0.2158448670038950  0.7978226494907545  0.2248111195227267   F   F   F
  0.4616344529792542  0.0286802995342086  0.2228021754681819   F   F   F
  0.6174008659980426  0.8485256553049384  0.4760517928063733   T   T   T
 
  0.00000000E+00  0.00000000E+00  0.00000000E+00
  0.00000000E+00  0.00000000E+00  0.00000000E+00
  0.00000000E+00  0.00000000E+00  0.00000000E+00
  0.00000000E+00  0.00000000E+00  0.00000000E+00
  0.00000000E+00  0.00000000E+00  0.00000000E+00
  0.00000000E+00  0.00000000E+00  0.00000000E+00
  0.00000000E+00  0.00000000E+00  0.00000000E+00
  0.00000000E+00  0.00000000E+00  0.00000000E+00
  0.00000000E+00  0.00000000E+00  0.00000000E+00
  0.00000000E+00  0.00000000E+00  0.00000000E+00
  0.00000000E+00  0.00000000E+00  0.00000000E+00
  0.00000000E+00  0.00000000E+00  0.00000000E+00
  0.00000000E+00  0.00000000E+00  0.00000000E+00
  0.00000000E+00  0.00000000E+00  0.00000000E+00
  0.00000000E+00  0.00000000E+00  0.00000000E+00
  0.00000000E+00  0.00000000E+00  0.00000000E+00
  0.00000000E+00  0.00000000E+00  0.00000000E+00
  0.00000000E+00  0.00000000E+00  0.00000000E+00
  0.00000000E+00  0.00000000E+00  0.00000000E+00
  0.00000000E+00  0.00000000E+00  0.00000000E+00
  0.00000000E+00  0.00000000E+00  0.00000000E+00
  0.00000000E+00  0.00000000E+00  0.00000000E+00
  0.00000000E+00  0.00000000E+00  0.00000000E+00
  0.00000000E+00  0.00000000E+00  0.00000000E+00
  0.00000000E+00  0.00000000E+00  0.00000000E+00
  0.00000000E+00  0.00000000E+00  0.00000000E+00
  0.00000000E+00  0.00000000E+00  0.00000000E+00
  0.00000000E+00  0.00000000E+00  0.00000000E+00
  0.00000000E+00  0.00000000E+00  0.00000000E+00
  0.00000000E+00  0.00000000E+00  0.00000000E+00
  0.00000000E+00  0.00000000E+00  0.00000000E+00
  0.00000000E+00  0.00000000E+00  0.00000000E+00
  0.00000000E+00  0.00000000E+00  0.00000000E+00
  0.00000000E+00  0.00000000E+00  0.00000000E+00
  0.00000000E+00  0.00000000E+00  0.00000000E+00
  0.00000000E+00  0.00000000E+00  0.00000000E+00
  0.00000000E+00  0.00000000E+00  0.00000000E+00
  0.00000000E+00  0.00000000E+00  0.00000000E+00
  0.00000000E+00  0.00000000E+00  0.00000000E+00
  0.00000000E+00  0.00000000E+00  0.00000000E+00
  0.00000000E+00  0.00000000E+00  0.00000000E+00
  0.00000000E+00  0.00000000E+00  0.00000000E+00
  0.00000000E+00  0.00000000E+00  0.00000000E+00
  0.00000000E+00  0.00000000E+00  0.00000000E+00
  0.00000000E+00  0.00000000E+00  0.00000000E+00
  0.00000000E+00  0.00000000E+00  0.00000000E+00
  0.00000000E+00  0.00000000E+00  0.00000000E+00
  0.00000000E+00  0.00000000E+00  0.00000000E+00
  0.00000000E+00  0.00000000E+00  0.00000000E+00
  0.00000000E+00  0.00000000E+00  0.00000000E+00
  0.00000000E+00  0.00000000E+00  0.00000000E+00
  0.00000000E+00  0.00000000E+00  0.00000000E+00
  0.00000000E+00  0.00000000E+00  0.00000000E+00
  0.00000000E+00  0.00000000E+00  0.00000000E+00
  0.00000000E+00  0.00000000E+00  0.00000000E+00
  0.00000000E+00  0.00000000E+00  0.00000000E+00
  0.00000000E+00  0.00000000E+00  0.00000000E+00
  0.00000000E+00  0.00000000E+00  0.00000000E+00
  0.00000000E+00  0.00000000E+00  0.00000000E+00
  0.00000000E+00  0.00000000E+00  0.00000000E+00
  0.00000000E+00  0.00000000E+00  0.00000000E+00
  0.00000000E+00  0.00000000E+00  0.00000000E+00
  0.00000000E+00  0.00000000E+00  0.00000000E+00
  0.00000000E+00  0.00000000E+00  0.00000000E+00
  0.00000000E+00  0.00000000E+00  0.00000000E+00
  0.00000000E+00  0.00000000E+00  0.00000000E+00
  0.00000000E+00  0.00000000E+00  0.00000000E+00
  0.00000000E+00  0.00000000E+00  0.00000000E+00
  0.00000000E+00  0.00000000E+00  0.00000000E+00
  0.00000000E+00  0.00000000E+00  0.00000000E+00
  0.00000000E+00  0.00000000E+00  0.00000000E+00
  0.00000000E+00  0.00000000E+00  0.00000000E+00
  0.00000000E+00  0.00000000E+00  0.00000000E+00
  0.00000000E+00  0.00000000E+00  0.00000000E+00
  0.00000000E+00  0.00000000E+00  0.00000000E+00
  0.00000000E+00  0.00000000E+00  0.00000000E+00
  0.00000000E+00  0.00000000E+00  0.00000000E+00
  0.00000000E+00  0.00000000E+00  0.00000000E+00
  0.00000000E+00  0.00000000E+00  0.00000000E+00
  0.00000000E+00  0.00000000E+00  0.00000000E+00
  0.00000000E+00  0.00000000E+00  0.00000000E+00
