Pt   H                                  
   1.00000000000000     
    11.2227001190000006    0.0000000000000000    0.0000000000000000
     5.6113500595000003    9.7191434021000003    0.0000000000000000
     0.0000000000000000    0.0000000000000000   22.0000000000000000
   Pt   H 
    80    17
Direct
  0.7855400587868449  0.8691847722171799  0.3262364875002985
  0.0353400048255317  0.8688957548352290  0.3265712820592624
  0.0355619079859310  0.6185719549741930  0.3261854483366629
  0.7851369369771727  0.8687804461583790  0.0214133957879242
  0.0350928864463969  0.8688360858750160  0.0215361594439348
  0.0353329519649369  0.6185357413777480  0.0213980244700895
  0.6185857263260780  0.2021043079514003  0.1245920032896814
  0.3681682004314776  0.9522590028202943  0.1247861293706883
  0.0354585499382514  0.3686248490152844  0.3264258849292774
  0.0354339552666640  0.3680403503399592  0.0213641679591090
  0.8686139527656445  0.2019999768035963  0.1249448591973090
  0.9522149825729975  0.5350251947786959  0.2247394076292317
  0.2850915456761322  0.1189803346748277  0.3264361954647593
  0.5355357803312781  0.6189549646823205  0.3261461709767718
  0.2848710770523968  0.3683968229065302  0.3252956782582878
  0.2843656510319264  0.1190175546983977  0.0214469945079604
  0.5350408774734016  0.6185046640452113  0.0211571631951586
  0.2849055994841598  0.3684262991171925  0.0212070899201571
  0.6184478278734605  0.9520348236818136  0.1247180889478207
  0.7019127613990294  0.7854136723067043  0.2247539210336123
  0.8684571549095951  0.7020301849678710  0.1246784569064069
  0.6187508030474245  0.4519736057512175  0.1246230442348652
  0.2862723275956296  0.8670661613072049  0.3272806355621311
  0.2850399389418458  0.8690401008940550  0.0213575046139170
  0.6183978352233995  0.7020630965772000  0.1245499516126360
  0.2023961951434877  0.0338883687861388  0.2258502216009538
  0.8691945010982430  0.9526960968195615  0.4325880908528474
  0.1198273421880986  0.4525545110175051  0.4323261535277126
  0.1188492673189285  0.9528242248036343  0.4330259178947317
  0.8701674839632217  0.4524446192068027  0.4323748175111759
  0.3689179869248106  0.9537240969626101  0.4323560179015280
  0.8693404343350886  0.2023393771942250  0.4329968419063592
  0.1190576849325070  0.2026410733211945  0.4324248524392951
  0.6193146886881914  0.9536580968470300  0.4322210374771315
  0.8700153208565917  0.7028508064069542  0.4322540284665214
  0.3689652721406051  0.2033855238301166  0.4323390111166262
  0.3702883564578192  0.7012469040760548  0.4328102475617996
  0.6177255064657756  0.4537733801310308  0.4328647002293531
  0.1197564621485265  0.7022622593950256  0.4322134721770746
  0.6187014855492556  0.2033360903178048  0.4321954900691320
  0.5351503660949726  0.3688144402376848  0.3261217798628003
  0.5351646721504129  0.3690931958017671  0.0212898719416496
  0.5350704582238321  0.1190893680723834  0.3261809383362568
  0.5350625899798522  0.1188307216722712  0.0214146805198328
  0.8687621043805110  0.4516471010698748  0.1247866779822998
  0.1183140580487299  0.4519957803897837  0.1245194821450623
  0.0352795605931240  0.1186657676423152  0.3268498973984586
  0.0355109752230635  0.1190999838257129  0.0216861423405392
  0.1184582985157186  0.9521330892247337  0.1249496155432014
  0.3696280825906891  0.4531088806335722  0.4302879509540876
  0.4519120648598197  0.5355799641205709  0.2247617822285145
  0.6202147911872319  0.7038242996249982  0.4307939304150654
  0.3684639066585618  0.2019372329926921  0.1245173962922086
  0.1182427363501787  0.2018874627536255  0.1255108819497784
  0.9518863935768377  0.7853873087028658  0.2248695689074164
  0.7862839717420035  0.6186836345996208  0.3260561884959687
  0.2852102147808149  0.6186709558042760  0.3261326075631648
  0.7850296353809944  0.6186492329515513  0.0215548006252552
  0.2855275441599192  0.6187870616357122  0.0213314949434220
  0.3683888617898746  0.7023468458366782  0.1245914991982836
  0.3683674939597199  0.4519342182266515  0.1243420320982893
  0.2017810828777674  0.2852635260959387  0.2247776338149565
  0.7835606019165142  0.3697928594800541  0.3272942784723730
  0.7854205529968722  0.3686358280801404  0.0213614299027030
  0.9518183834276307  0.0353618544947858  0.2251637968343225
  0.4520909617899829  0.7852660212177708  0.2248639904316145
  0.7017661909287434  0.5356450400364660  0.2248521209522115
  0.2018362071238083  0.7852859878009537  0.2249925581348533
  0.4514579340302854  0.0358199563895499  0.2247513149800728
  0.1184147978804235  0.7022160541160299  0.1245843038944273
  0.7018615348306230  0.0355157693292729  0.2248551678493481
  0.7853626205777449  0.1188947805694301  0.3265777214330582
  0.5351629223401287  0.8698240880064201  0.3260429591680221
  0.7852796080295917  0.1186570906251655  0.0216000082585792
  0.5350893328342290  0.8686513671923928  0.0214979061453220
  0.2019090427547560  0.5358545571957644  0.2245113880239396
  0.9504013433029093  0.2858505095003060  0.2258605670568478
  0.8684986903070587  0.9519593488593759  0.1248047062726850
  0.7018128993022872  0.2853615443718264  0.2249951607935645
  0.4522890519183774  0.2855207001146346  0.2245300219587088
  0.4529023785294543  0.5355804207052306  0.5001263441297368
  0.4953479086614838  0.5798165724466556  0.5086507794943046
  0.7110251207766217  0.5385291082362292  0.4724127827207278
  0.2004802929813555  0.7877216760303654  0.4730503513793610
  0.4548978075679465  0.7946166833750631  0.4724093216428192
  0.7029733981714682  0.7865996771388492  0.4726480025759966
  0.9531450773536310  0.7856204283793981  0.4732842799928020
  0.2049759030608266  0.5350383967998905  0.4726869731132129
  0.9533335629802535  0.5360919052229266  0.4731112046020369
  0.2025008501672592  0.2860833094702770  0.4732737932027176
  0.4514728084691682  0.2884872892902468  0.4727012308885282
  0.7042321647566722  0.2840419192552016  0.4730447477430283
  0.9516301870707894  0.2862548293817839  0.4735848204309832
  0.2027138586658793  0.0352115273884304  0.4735778317998127
  0.4525677432348988  0.0368759610930401  0.4730960843854064
  0.7021116569802537  0.0367265890019981  0.4732748630315342
  0.9523212627000059  0.0358468657597872  0.4738245131601899
 
  0.00000000E+00  0.00000000E+00  0.00000000E+00
  0.00000000E+00  0.00000000E+00  0.00000000E+00
  0.00000000E+00  0.00000000E+00  0.00000000E+00
  0.00000000E+00  0.00000000E+00  0.00000000E+00
  0.00000000E+00  0.00000000E+00  0.00000000E+00
  0.00000000E+00  0.00000000E+00  0.00000000E+00
  0.00000000E+00  0.00000000E+00  0.00000000E+00
  0.00000000E+00  0.00000000E+00  0.00000000E+00
  0.00000000E+00  0.00000000E+00  0.00000000E+00
  0.00000000E+00  0.00000000E+00  0.00000000E+00
  0.00000000E+00  0.00000000E+00  0.00000000E+00
  0.00000000E+00  0.00000000E+00  0.00000000E+00
  0.00000000E+00  0.00000000E+00  0.00000000E+00
  0.00000000E+00  0.00000000E+00  0.00000000E+00
  0.00000000E+00  0.00000000E+00  0.00000000E+00
  0.00000000E+00  0.00000000E+00  0.00000000E+00
  0.00000000E+00  0.00000000E+00  0.00000000E+00
  0.00000000E+00  0.00000000E+00  0.00000000E+00
  0.00000000E+00  0.00000000E+00  0.00000000E+00
  0.00000000E+00  0.00000000E+00  0.00000000E+00
  0.00000000E+00  0.00000000E+00  0.00000000E+00
  0.00000000E+00  0.00000000E+00  0.00000000E+00
  0.00000000E+00  0.00000000E+00  0.00000000E+00
  0.00000000E+00  0.00000000E+00  0.00000000E+00
  0.00000000E+00  0.00000000E+00  0.00000000E+00
  0.00000000E+00  0.00000000E+00  0.00000000E+00
  0.00000000E+00  0.00000000E+00  0.00000000E+00
  0.00000000E+00  0.00000000E+00  0.00000000E+00
  0.00000000E+00  0.00000000E+00  0.00000000E+00
  0.00000000E+00  0.00000000E+00  0.00000000E+00
  0.00000000E+00  0.00000000E+00  0.00000000E+00
  0.00000000E+00  0.00000000E+00  0.00000000E+00
  0.00000000E+00  0.00000000E+00  0.00000000E+00
  0.00000000E+00  0.00000000E+00  0.00000000E+00
  0.00000000E+00  0.00000000E+00  0.00000000E+00
  0.00000000E+00  0.00000000E+00  0.00000000E+00
  0.00000000E+00  0.00000000E+00  0.00000000E+00
  0.00000000E+00  0.00000000E+00  0.00000000E+00
  0.00000000E+00  0.00000000E+00  0.00000000E+00
  0.00000000E+00  0.00000000E+00  0.00000000E+00
  0.00000000E+00  0.00000000E+00  0.00000000E+00
  0.00000000E+00  0.00000000E+00  0.00000000E+00
  0.00000000E+00  0.00000000E+00  0.00000000E+00
  0.00000000E+00  0.00000000E+00  0.00000000E+00
  0.00000000E+00  0.00000000E+00  0.00000000E+00
  0.00000000E+00  0.00000000E+00  0.00000000E+00
  0.00000000E+00  0.00000000E+00  0.00000000E+00
  0.00000000E+00  0.00000000E+00  0.00000000E+00
  0.00000000E+00  0.00000000E+00  0.00000000E+00
  0.00000000E+00  0.00000000E+00  0.00000000E+00
  0.00000000E+00  0.00000000E+00  0.00000000E+00
  0.00000000E+00  0.00000000E+00  0.00000000E+00
  0.00000000E+00  0.00000000E+00  0.00000000E+00
  0.00000000E+00  0.00000000E+00  0.00000000E+00
  0.00000000E+00  0.00000000E+00  0.00000000E+00
  0.00000000E+00  0.00000000E+00  0.00000000E+00
  0.00000000E+00  0.00000000E+00  0.00000000E+00
  0.00000000E+00  0.00000000E+00  0.00000000E+00
  0.00000000E+00  0.00000000E+00  0.00000000E+00
  0.00000000E+00  0.00000000E+00  0.00000000E+00
  0.00000000E+00  0.00000000E+00  0.00000000E+00
  0.00000000E+00  0.00000000E+00  0.00000000E+00
  0.00000000E+00  0.00000000E+00  0.00000000E+00
  0.00000000E+00  0.00000000E+00  0.00000000E+00
  0.00000000E+00  0.00000000E+00  0.00000000E+00
  0.00000000E+00  0.00000000E+00  0.00000000E+00
  0.00000000E+00  0.00000000E+00  0.00000000E+00
  0.00000000E+00  0.00000000E+00  0.00000000E+00
  0.00000000E+00  0.00000000E+00  0.00000000E+00
  0.00000000E+00  0.00000000E+00  0.00000000E+00
  0.00000000E+00  0.00000000E+00  0.00000000E+00
  0.00000000E+00  0.00000000E+00  0.00000000E+00
  0.00000000E+00  0.00000000E+00  0.00000000E+00
  0.00000000E+00  0.00000000E+00  0.00000000E+00
  0.00000000E+00  0.00000000E+00  0.00000000E+00
  0.00000000E+00  0.00000000E+00  0.00000000E+00
  0.00000000E+00  0.00000000E+00  0.00000000E+00
  0.00000000E+00  0.00000000E+00  0.00000000E+00
  0.00000000E+00  0.00000000E+00  0.00000000E+00
  0.00000000E+00  0.00000000E+00  0.00000000E+00
  0.00000000E+00  0.00000000E+00  0.00000000E+00
  0.00000000E+00  0.00000000E+00  0.00000000E+00
  0.00000000E+00  0.00000000E+00  0.00000000E+00
  0.00000000E+00  0.00000000E+00  0.00000000E+00
  0.00000000E+00  0.00000000E+00  0.00000000E+00
  0.00000000E+00  0.00000000E+00  0.00000000E+00
  0.00000000E+00  0.00000000E+00  0.00000000E+00
  0.00000000E+00  0.00000000E+00  0.00000000E+00
  0.00000000E+00  0.00000000E+00  0.00000000E+00
  0.00000000E+00  0.00000000E+00  0.00000000E+00
  0.00000000E+00  0.00000000E+00  0.00000000E+00
  0.00000000E+00  0.00000000E+00  0.00000000E+00
  0.00000000E+00  0.00000000E+00  0.00000000E+00
  0.00000000E+00  0.00000000E+00  0.00000000E+00
  0.00000000E+00  0.00000000E+00  0.00000000E+00
  0.00000000E+00  0.00000000E+00  0.00000000E+00
  0.00000000E+00  0.00000000E+00  0.00000000E+00
