10.76                                   
   1.00000000000000     
    10.7600002288999992    0.0000000000000000    0.0000000000000000
     5.3800001143999996    9.3184335428999994    0.0000000000000000
     0.0000000000000000    0.0000000000000000   22.0000000000000000
   Pt   Fe   Co   Cu   Ni   H 
    32    13    10    13    12     1
Selective dynamics
Direct
  0.7863981563782995  0.8797068136016978  0.3155606981267914   T   T   T
  0.0430831628865642  0.8832847564456789  0.3145809872164139   T   T   T
  0.2794228573688015  0.3803754255570586  0.3177114846269048   T   T   T
  0.8722618914738473  0.9637143891757216  0.4191714709729354   T   T   T
  0.1198794908552151  0.4639031913244996  0.4231424278146464   T   T   T
  0.1233127701690650  0.9606736585286269  0.4212464911638150   T   T   T
  0.8734308574413775  0.4604303426446433  0.4229553722162760   T   T   T
  0.3777471232842136  0.9582695821648364  0.4167581744029623   T   T   T
  0.8694617763552136  0.2137972803890086  0.4163399139689067   T   T   T
  0.1253108294634474  0.2148623181568218  0.4228312097312972   T   T   T
  0.6248990268410234  0.9603362962466788  0.4207023755927972   T   T   T
  0.8738092119526865  0.7116213967552266  0.4229089749177453   T   T   T
  0.3750295649657477  0.2091537824771163  0.4211130848153725   T   T   T
  0.3768772070614228  0.7113747014189251  0.4203489297075709   T   T   T
  0.6257360648724644  0.4624170891606333  0.4197431195964623   T   T   T
  0.1237068365360818  0.7111068899187887  0.4222092083096506   T   T   T
  0.6239730308026807  0.2107781447862408  0.4192454898753165   T   T   T
  0.5479314530569197  0.3757127234895147  0.3160239262871081   T   T   T
  0.5340060121509161  0.1249535539850633  0.3136535201450151   T   T   T
  0.5479267310515752  0.1232892167026662  0.0438354440136379   F   F   F
  0.1193453373624038  0.4597245861096511  0.1287449583545452   F   F   F
  0.0453750063484107  0.1366396759257213  0.3137802156947231   T   T   T
  0.0408040871490059  0.1311498911028011  0.0353636510090922   F   F   F
  0.1313044783091684  0.9579990200822763  0.1330364317545474   F   F   F
  0.3739027816210209  0.4617412383799885  0.4224932457156005   T   T   T
  0.4554859481779090  0.5468658091233323  0.2192060685090880   F   F   F
  0.6227315360041835  0.7114400559440075  0.4212951121235077   T   T   T
  0.9556912742960080  0.7873506540045199  0.2205031624227303   F   F   F
  0.7948834658025290  0.6236074828909979  0.3181592161436365   T   T   T
  0.2904600151333213  0.6313629383385532  0.3169934211012818   T   T   T
  0.2012375110298592  0.2788553671104808  0.2253960259409098   F   F   F
  0.7053132991228281  0.5507170639758527  0.2210761596681792   F   F   F
  0.0402320065155173  0.6321779983823717  0.3229695326099808   T   T   T
  0.7954783082485406  0.8611238289308787  0.0457152006545485   F   F   F
  0.0575212550804594  0.8641789042575354  0.0409535455772740   F   F   F
  0.0456084242478454  0.6318179268537989  0.0403526911181800   F   F   F
  0.6278305598418541  0.2253448316750593  0.1304824814136367   F   F   F
  0.3825655044668324  0.9535177246255060  0.1314263805090903   F   F   F
  0.0354321494515717  0.3845658898631314  0.3226033608058625   T   T   T
  0.0260615386681806  0.3810885896595479  0.0403102601590888   F   F   F
  0.8723711723195962  0.2151287605659249  0.1298020397499968   F   F   F
  0.9547335530667951  0.5442973253336660  0.2239073203045479   F   F   F
  0.2973035817541628  0.1156847903547238  0.3201103696483903   T   T   T
  0.5408174620274653  0.6284304147647929  0.3209198439499782   T   T   T
  0.2949751593484535  0.1163516447918553  0.0426677318909086   F   F   F
  0.5497857468387153  0.6253450526821567  0.0461306137818198   F   F   F
  0.2969566052389681  0.3823652154298856  0.0422564458500005   F   F   F
  0.6249458186425088  0.9474812472239122  0.1336582942090914   F   F   F
  0.7073783254117956  0.7925741239553403  0.2204095770727292   F   F   F
  0.8643637461216613  0.7029606029106716  0.1299859167545421   F   F   F
  0.6269787784890184  0.4592523668595234  0.1284489634045443   F   F   F
  0.2986657590470093  0.8734583891962192  0.3172975691418269   T   T   T
  0.3071779756071464  0.8685022953526769  0.0426992808000008   F   F   F
  0.6259846636109003  0.7158394751425234  0.1294188900181794   F   F   F
  0.2263697746008830  0.0265762640963061  0.2277658617318181   F   F   F
  0.5422786776051893  0.3823649547208277  0.0372911256318176   F   F   F
  0.3770236217526488  0.2055569132388655  0.1342270989136338   F   F   F
  0.1386540919502792  0.7046558401978444  0.1337982367227255   F   F   F
  0.7044384733601134  0.0510072048817847  0.2203902870818197   F   F   F
  0.7929710160925522  0.1295552159820456  0.3152090127719751   T   T   T
  0.5393943319360847  0.8725343766696800  0.3163063704808357   T   T   T
  0.7964640097093465  0.1229298524077365  0.0375270880681811   F   F   F
  0.5453781290973083  0.8713405885677545  0.0381163191590943   F   F   F
  0.2079968609143066  0.5423612536627189  0.2238731068772708   F   F   F
  0.9502517692622092  0.2988565663079612  0.2218493459999991   F   F   F
  0.8721394008204939  0.9645445904637313  0.1305576548363661   F   F   F
  0.7160608076910577  0.2907946614444299  0.2240872102636331   F   F   F
  0.4572063303243468  0.2931434561747039  0.2211508691681843   F   F   F
  0.8746667074118193  0.4568803762026974  0.1294246137636392   F   F   F
  0.1274815274220984  0.2065411393920868  0.1296872253999979   F   F   F
  0.7912047277638123  0.6211097396096008  0.0422462150454521   F   F   F
  0.2978218131850454  0.6268259632060662  0.0450505997681816   F   F   F
  0.3863157406502253  0.7128529518634892  0.1302027574090943   F   F   F
  0.3822704936785541  0.4518886614165325  0.1282433244909100   F   F   F
  0.7930173757297170  0.3810946094128976  0.3191487308999609   T   T   T
  0.7914440065378301  0.3765222275125097  0.0417798686954569   F   F   F
  0.9554123354930013  0.0542452715977291  0.2215384381590937   F   F   F
  0.4587321815542893  0.7962888195681401  0.2253854676772704   F   F   F
  0.2158448670038950  0.7978226494907545  0.2248111195227267   F   F   F
  0.4616344529792542  0.0286802995342086  0.2228021754681819   F   F   F
  0.1288025016083529  0.0761671857692226  0.4721009956765935   T   T   T
 
  0.00000000E+00  0.00000000E+00  0.00000000E+00
  0.00000000E+00  0.00000000E+00  0.00000000E+00
  0.00000000E+00  0.00000000E+00  0.00000000E+00
  0.00000000E+00  0.00000000E+00  0.00000000E+00
  0.00000000E+00  0.00000000E+00  0.00000000E+00
  0.00000000E+00  0.00000000E+00  0.00000000E+00
  0.00000000E+00  0.00000000E+00  0.00000000E+00
  0.00000000E+00  0.00000000E+00  0.00000000E+00
  0.00000000E+00  0.00000000E+00  0.00000000E+00
  0.00000000E+00  0.00000000E+00  0.00000000E+00
  0.00000000E+00  0.00000000E+00  0.00000000E+00
  0.00000000E+00  0.00000000E+00  0.00000000E+00
  0.00000000E+00  0.00000000E+00  0.00000000E+00
  0.00000000E+00  0.00000000E+00  0.00000000E+00
  0.00000000E+00  0.00000000E+00  0.00000000E+00
  0.00000000E+00  0.00000000E+00  0.00000000E+00
  0.00000000E+00  0.00000000E+00  0.00000000E+00
  0.00000000E+00  0.00000000E+00  0.00000000E+00
  0.00000000E+00  0.00000000E+00  0.00000000E+00
  0.00000000E+00  0.00000000E+00  0.00000000E+00
  0.00000000E+00  0.00000000E+00  0.00000000E+00
  0.00000000E+00  0.00000000E+00  0.00000000E+00
  0.00000000E+00  0.00000000E+00  0.00000000E+00
  0.00000000E+00  0.00000000E+00  0.00000000E+00
  0.00000000E+00  0.00000000E+00  0.00000000E+00
  0.00000000E+00  0.00000000E+00  0.00000000E+00
  0.00000000E+00  0.00000000E+00  0.00000000E+00
  0.00000000E+00  0.00000000E+00  0.00000000E+00
  0.00000000E+00  0.00000000E+00  0.00000000E+00
  0.00000000E+00  0.00000000E+00  0.00000000E+00
  0.00000000E+00  0.00000000E+00  0.00000000E+00
  0.00000000E+00  0.00000000E+00  0.00000000E+00
  0.00000000E+00  0.00000000E+00  0.00000000E+00
  0.00000000E+00  0.00000000E+00  0.00000000E+00
  0.00000000E+00  0.00000000E+00  0.00000000E+00
  0.00000000E+00  0.00000000E+00  0.00000000E+00
  0.00000000E+00  0.00000000E+00  0.00000000E+00
  0.00000000E+00  0.00000000E+00  0.00000000E+00
  0.00000000E+00  0.00000000E+00  0.00000000E+00
  0.00000000E+00  0.00000000E+00  0.00000000E+00
  0.00000000E+00  0.00000000E+00  0.00000000E+00
  0.00000000E+00  0.00000000E+00  0.00000000E+00
  0.00000000E+00  0.00000000E+00  0.00000000E+00
  0.00000000E+00  0.00000000E+00  0.00000000E+00
  0.00000000E+00  0.00000000E+00  0.00000000E+00
  0.00000000E+00  0.00000000E+00  0.00000000E+00
  0.00000000E+00  0.00000000E+00  0.00000000E+00
  0.00000000E+00  0.00000000E+00  0.00000000E+00
  0.00000000E+00  0.00000000E+00  0.00000000E+00
  0.00000000E+00  0.00000000E+00  0.00000000E+00
  0.00000000E+00  0.00000000E+00  0.00000000E+00
  0.00000000E+00  0.00000000E+00  0.00000000E+00
  0.00000000E+00  0.00000000E+00  0.00000000E+00
  0.00000000E+00  0.00000000E+00  0.00000000E+00
  0.00000000E+00  0.00000000E+00  0.00000000E+00
  0.00000000E+00  0.00000000E+00  0.00000000E+00
  0.00000000E+00  0.00000000E+00  0.00000000E+00
  0.00000000E+00  0.00000000E+00  0.00000000E+00
  0.00000000E+00  0.00000000E+00  0.00000000E+00
  0.00000000E+00  0.00000000E+00  0.00000000E+00
  0.00000000E+00  0.00000000E+00  0.00000000E+00
  0.00000000E+00  0.00000000E+00  0.00000000E+00
  0.00000000E+00  0.00000000E+00  0.00000000E+00
  0.00000000E+00  0.00000000E+00  0.00000000E+00
  0.00000000E+00  0.00000000E+00  0.00000000E+00
  0.00000000E+00  0.00000000E+00  0.00000000E+00
  0.00000000E+00  0.00000000E+00  0.00000000E+00
  0.00000000E+00  0.00000000E+00  0.00000000E+00
  0.00000000E+00  0.00000000E+00  0.00000000E+00
  0.00000000E+00  0.00000000E+00  0.00000000E+00
  0.00000000E+00  0.00000000E+00  0.00000000E+00
  0.00000000E+00  0.00000000E+00  0.00000000E+00
  0.00000000E+00  0.00000000E+00  0.00000000E+00
  0.00000000E+00  0.00000000E+00  0.00000000E+00
  0.00000000E+00  0.00000000E+00  0.00000000E+00
  0.00000000E+00  0.00000000E+00  0.00000000E+00
  0.00000000E+00  0.00000000E+00  0.00000000E+00
  0.00000000E+00  0.00000000E+00  0.00000000E+00
  0.00000000E+00  0.00000000E+00  0.00000000E+00
  0.00000000E+00  0.00000000E+00  0.00000000E+00
  0.00000000E+00  0.00000000E+00  0.00000000E+00
