10.76                                   
   1.00000000000000     
    10.7600002288999992    0.0000000000000000    0.0000000000000000
     5.3800001143999996    9.3184335428999994    0.0000000000000000
     0.0000000000000000    0.0000000000000000   22.0000000000000000
   Pt   Fe   Co   Cu   Ni
    32    13    10    13    12
Direct
  0.7856324120746905  0.8798262232177976  0.3158160073759504
  0.0422059628828677  0.8824210990978827  0.3138953380985399
  0.2788840705179041  0.3809421302895544  0.3179080268917573
  0.8737573830352261  0.9626622317082294  0.4201578891258038
  0.1201398325898637  0.4634667120470439  0.4240753198265779
  0.1245801625448237  0.9614960726632376  0.4186367948377026
  0.8738326264153429  0.4595048112029403  0.4231741680592620
  0.3736326381218049  0.9603793752212582  0.4179517882906225
  0.8732195018799800  0.2112012745091221  0.4176578553689936
  0.1252583297284531  0.2115931687228567  0.4194683268034822
  0.6240300349506143  0.9606375281182693  0.4206317055815845
  0.8734463924591154  0.7113943209197018  0.4233029923796536
  0.3738724741588513  0.2093729614880573  0.4213581116111769
  0.3751219513521420  0.7126181501772422  0.4207332207675094
  0.6253349890802227  0.4618187965889078  0.4198625090313115
  0.1233295189835317  0.7110909598656221  0.4231772088268428
  0.6243546484990432  0.2104867054122153  0.4191890813359720
  0.5477348371231301  0.3759336666150901  0.3161500021260082
  0.5335031705788111  0.1250902399166165  0.3137067938513525
  0.5479267310542468  0.1232892166986304  0.0438354440154214
  0.1193453373649618  0.4597245861089050  0.1287449583557674
  0.0437099804244667  0.1364446795205438  0.3131374888899074
  0.0408040871472437  0.1311498911012876  0.0353636510072164
  0.1313044783081594  0.9579990200800168  0.1330364317540287
  0.3735324437122287  0.4615510403665866  0.4227474875583042
  0.4554859481821936  0.5468658091213570  0.2192060685085409
  0.6221692289357748  0.7115539484370288  0.4209696963352130
  0.9556912742983670  0.7873506540065094  0.2205031624226095
  0.7952123459763101  0.6232185039787623  0.3181540870439505
  0.2903290143899895  0.6314529519617054  0.3170909539473143
  0.2012375110269389  0.2788553671110989  0.2253960259389416
  0.7053132991235742  0.5507170639804500  0.2210761596664099
  0.0404155830234956  0.6319833884859065  0.3236839920455381
  0.7954783082502459  0.8611238289275533  0.0457152006531629
  0.0575212550794859  0.8641789042613937  0.0409535455759595
  0.0456084242458275  0.6318179268583748  0.0403526911165386
  0.6278305598418896  0.2253448316779298  0.1304824814115833
  0.3825655044691061  0.9535177246283837  0.1314263805105966
  0.0351058703812797  0.3841595969804743  0.3229085084973988
  0.0260615386655445  0.3810885896638112  0.0403102601602683
  0.8723711723154253  0.2151287605708347  0.1298020397506221
  0.9547335530652745  0.5442973253318613  0.2239073203046615
  0.2968559108764524  0.1158494469625211  0.3201172175932498
  0.5405141546482497  0.6287109432320648  0.3212047128038051
  0.2949751593497112  0.1163516447943636  0.0426677318922302
  0.5497857468404774  0.6253450526786750  0.0461306137803703
  0.2969566052368577  0.3823652154266171  0.0422564458495458
  0.6249458186400290  0.9474812472248644  0.1336582942103135
  0.7073783254148296  0.7925741239556103  0.2204095770711092
  0.8643637461183786  0.7029606029149846  0.1299859167551247
  0.6269787784857144  0.4592523668619535  0.1284489634042174
  0.2967087503881913  0.8751499905531475  0.3179301855420889
  0.3071779756004673  0.8685022953570822  0.0426992807989564
  0.6259846636134938  0.7158394751452306  0.1294188900187550
  0.2263697746015012  0.0265762640936771  0.2277658617301057
  0.5422786776107174  0.3823649547187813  0.0372911256320947
  0.3770236217498635  0.2055569132402653  0.1342270989128949
  0.1386540919531001  0.7046558401995284  0.1337982367243882
  0.7044384733627851  0.0510072048850319  0.2203902870828998
  0.7925508852847045  0.1296203063536296  0.3158680097209512
  0.5383328135290171  0.8730092946625660  0.3165839620524551
  0.7964640097094460  0.1229298524037929  0.0375270880691190
  0.5453781290966688  0.8713405885702770  0.0381163191571261
  0.2079968609184348  0.5423612536577664  0.2238731068778108
  0.9502517692680570  0.2988565663027032  0.2218493459995017
  0.8721394008246861  0.9645445904631345  0.1305576548379790
  0.7160608076865174  0.2907946614463199  0.2240872102629226
  0.4572063303228120  0.2931434561791875  0.2211508691678006
  0.8746667074115066  0.4568803761992015  0.1294246137657424
  0.1274815274228587  0.2065411393962080  0.1296872253999197
  0.7912047277656669  0.6211097396067444  0.0422462150470864
  0.2978218131875749  0.6268259632037427  0.0450505997679826
  0.3863157406518951  0.7128529518600288  0.1302027574103377
  0.3822704936797052  0.4518886614153104  0.1282433244901569
  0.7923447699099029  0.3811788137036558  0.3198470779832192
  0.7914440065443671  0.3765222275071878  0.0417798686976312
  0.9554123354893420  0.0542452715987451  0.2215384381602732
  0.4587321815564778  0.7962888195633084  0.2253854676790397
  0.2158448670090607  0.7978226494878697  0.2248111195234159
  0.4616344529819898  0.0286802995331641  0.2228021754673009
 
  0.00000000E+00  0.00000000E+00  0.00000000E+00
  0.00000000E+00  0.00000000E+00  0.00000000E+00
  0.00000000E+00  0.00000000E+00  0.00000000E+00
  0.00000000E+00  0.00000000E+00  0.00000000E+00
  0.00000000E+00  0.00000000E+00  0.00000000E+00
  0.00000000E+00  0.00000000E+00  0.00000000E+00
  0.00000000E+00  0.00000000E+00  0.00000000E+00
  0.00000000E+00  0.00000000E+00  0.00000000E+00
  0.00000000E+00  0.00000000E+00  0.00000000E+00
  0.00000000E+00  0.00000000E+00  0.00000000E+00
  0.00000000E+00  0.00000000E+00  0.00000000E+00
  0.00000000E+00  0.00000000E+00  0.00000000E+00
  0.00000000E+00  0.00000000E+00  0.00000000E+00
  0.00000000E+00  0.00000000E+00  0.00000000E+00
  0.00000000E+00  0.00000000E+00  0.00000000E+00
  0.00000000E+00  0.00000000E+00  0.00000000E+00
  0.00000000E+00  0.00000000E+00  0.00000000E+00
  0.00000000E+00  0.00000000E+00  0.00000000E+00
  0.00000000E+00  0.00000000E+00  0.00000000E+00
  0.00000000E+00  0.00000000E+00  0.00000000E+00
  0.00000000E+00  0.00000000E+00  0.00000000E+00
  0.00000000E+00  0.00000000E+00  0.00000000E+00
  0.00000000E+00  0.00000000E+00  0.00000000E+00
  0.00000000E+00  0.00000000E+00  0.00000000E+00
  0.00000000E+00  0.00000000E+00  0.00000000E+00
  0.00000000E+00  0.00000000E+00  0.00000000E+00
  0.00000000E+00  0.00000000E+00  0.00000000E+00
  0.00000000E+00  0.00000000E+00  0.00000000E+00
  0.00000000E+00  0.00000000E+00  0.00000000E+00
  0.00000000E+00  0.00000000E+00  0.00000000E+00
  0.00000000E+00  0.00000000E+00  0.00000000E+00
  0.00000000E+00  0.00000000E+00  0.00000000E+00
  0.00000000E+00  0.00000000E+00  0.00000000E+00
  0.00000000E+00  0.00000000E+00  0.00000000E+00
  0.00000000E+00  0.00000000E+00  0.00000000E+00
  0.00000000E+00  0.00000000E+00  0.00000000E+00
  0.00000000E+00  0.00000000E+00  0.00000000E+00
  0.00000000E+00  0.00000000E+00  0.00000000E+00
  0.00000000E+00  0.00000000E+00  0.00000000E+00
  0.00000000E+00  0.00000000E+00  0.00000000E+00
  0.00000000E+00  0.00000000E+00  0.00000000E+00
  0.00000000E+00  0.00000000E+00  0.00000000E+00
  0.00000000E+00  0.00000000E+00  0.00000000E+00
  0.00000000E+00  0.00000000E+00  0.00000000E+00
  0.00000000E+00  0.00000000E+00  0.00000000E+00
  0.00000000E+00  0.00000000E+00  0.00000000E+00
  0.00000000E+00  0.00000000E+00  0.00000000E+00
  0.00000000E+00  0.00000000E+00  0.00000000E+00
  0.00000000E+00  0.00000000E+00  0.00000000E+00
  0.00000000E+00  0.00000000E+00  0.00000000E+00
  0.00000000E+00  0.00000000E+00  0.00000000E+00
  0.00000000E+00  0.00000000E+00  0.00000000E+00
  0.00000000E+00  0.00000000E+00  0.00000000E+00
  0.00000000E+00  0.00000000E+00  0.00000000E+00
  0.00000000E+00  0.00000000E+00  0.00000000E+00
  0.00000000E+00  0.00000000E+00  0.00000000E+00
  0.00000000E+00  0.00000000E+00  0.00000000E+00
  0.00000000E+00  0.00000000E+00  0.00000000E+00
  0.00000000E+00  0.00000000E+00  0.00000000E+00
  0.00000000E+00  0.00000000E+00  0.00000000E+00
  0.00000000E+00  0.00000000E+00  0.00000000E+00
  0.00000000E+00  0.00000000E+00  0.00000000E+00
  0.00000000E+00  0.00000000E+00  0.00000000E+00
  0.00000000E+00  0.00000000E+00  0.00000000E+00
  0.00000000E+00  0.00000000E+00  0.00000000E+00
  0.00000000E+00  0.00000000E+00  0.00000000E+00
  0.00000000E+00  0.00000000E+00  0.00000000E+00
  0.00000000E+00  0.00000000E+00  0.00000000E+00
  0.00000000E+00  0.00000000E+00  0.00000000E+00
  0.00000000E+00  0.00000000E+00  0.00000000E+00
  0.00000000E+00  0.00000000E+00  0.00000000E+00
  0.00000000E+00  0.00000000E+00  0.00000000E+00
  0.00000000E+00  0.00000000E+00  0.00000000E+00
  0.00000000E+00  0.00000000E+00  0.00000000E+00
  0.00000000E+00  0.00000000E+00  0.00000000E+00
  0.00000000E+00  0.00000000E+00  0.00000000E+00
  0.00000000E+00  0.00000000E+00  0.00000000E+00
  0.00000000E+00  0.00000000E+00  0.00000000E+00
  0.00000000E+00  0.00000000E+00  0.00000000E+00
  0.00000000E+00  0.00000000E+00  0.00000000E+00
