10.66                                   
   1.00000000000000     
    10.6599998474000000    0.0000000000000000    0.0000000000000000
     5.3299999237000000    9.2318306721999992    0.0000000000000000
     0.0000000000000000    0.0000000000000000   22.0000000000000000
   Pt   Fe   Co   Cu   Ni   H 
    32    13    10    13    12     1
Selective dynamics
Direct
  0.7859760829841136  0.8796411176446313  0.3161435925772693   F   F   F
  0.0425046378976788  0.8820286434325979  0.3146597762409087   F   F   F
  0.2814754559878381  0.3776624911892057  0.3194233951954573   F   F   F
  0.8749872583183915  0.9625540089853502  0.4218070892090893   F   F   F
  0.1203036461370885  0.4647612875981721  0.4248495405772701   F   F   F
  0.1252606812139021  0.9620870702217275  0.4197301144818155   F   F   F
  0.8745660744206916  0.4602784171394916  0.4246677123409057   F   F   F
  0.3749691248913223  0.9601862849795495  0.4178183695272750   F   F   F
  0.8747324811721029  0.2115217710372761  0.4190693073818181   F   F   F
  0.1257976731215749  0.2116355153787097  0.4195980078636339   F   F   F
  0.6258498102420802  0.9607668679419490  0.4214673174045487   F   F   F
  0.8743295555014186  0.7117408244809340  0.4246868523227292   F   F   F
  0.3757526267856193  0.2121587441262349  0.4286851003863603   F   F   F
  0.3759145777103683  0.7130259972187432  0.4220206050000002   F   F   F
  0.6266121141456580  0.4620694308600690  0.4210900415181840   F   F   F
  0.1245868941750103  0.7115804052907890  0.4245015112318171   F   F   F
  0.6267743529849525  0.2115718729960818  0.4205984395090923   F   F   F
  0.5485853349303866  0.3744693009058579  0.3163236113818186   F   F   F
  0.5332399689168952  0.1239225502201933  0.3158964164500020   F   F   F
  0.5486022592113002  0.1220783678684398  0.0417194611409073   F   F   F
  0.1203770114094098  0.4596758926676330  0.1283201030954544   F   F   F
  0.0434104906385855  0.1362598143928295  0.3134645703909058   F   F   F
  0.0418426388172080  0.1305148925801163  0.0343023685500015   F   F   F
  0.1308766909586225  0.9576410281464973  0.1324593496136330   F   F   F
  0.3752557026942611  0.4636533733433339  0.4245478189181853   F   F   F
  0.4553718597268031  0.5455273800423655  0.2188430460181792   F   F   F
  0.6230661785189540  0.7120975514635788  0.4221292229090921   F   F   F
  0.9563126376199662  0.7887278463010219  0.2206804103818172   F   F   F
  0.7954549831665503  0.6223199045992587  0.3186243780409086   F   F   F
  0.2914557774771680  0.6299276705878043  0.3176369208499992   F   F   F
  0.2026055194024963  0.2799442963877610  0.2252878701136396   F   F   F
  0.7063268156138065  0.5495590845353959  0.2210324181772734   F   F   F
  0.0411000783509508  0.6304677215676193  0.3241588227181822   F   F   F
  0.7960105560665554  0.8618201000109948  0.0435832611454572   F   F   F
  0.0565437832242921  0.8651109997121225  0.0392200758363614   F   F   F
  0.0435481061810350  0.6317236463144766  0.0389093084545422   F   F   F
  0.6276815134142240  0.2235163201393817  0.1293691217272723   F   F   F
  0.3825164796165623  0.9540841432375444  0.1307328652727264   F   F   F
  0.0363984106162434  0.3834682277005399  0.3228260342681821   F   F   F
  0.0278953743126209  0.3811135671600852  0.0392268803136346   F   F   F
  0.8723854835080758  0.2152433571581582  0.1290949134499968   F   F   F
  0.9553941812000062  0.5443246922013216  0.2238630304727280   F   F   F
  0.2967965030699204  0.1140253732956680  0.3189451215500014   F   F   F
  0.5410443327045300  0.6283537413839539  0.3213325423727298   F   F   F
  0.2959387413066850  0.1156684851700760  0.0410976887409120   F   F   F
  0.5491575652165039  0.6253534475437093  0.0451299578272710   F   F   F
  0.2944436057289366  0.3818825695120651  0.0395469972636349   F   F   F
  0.6257779840731033  0.9479981115397109  0.1328387403227254   F   F   F
  0.7070478494583838  0.7931679141440569  0.2201990798727280   F   F   F
  0.8652306351059451  0.7044347069518153  0.1296516185590875   F   F   F
  0.6267408805099777  0.4597839886277342  0.1279108792227248   F   F   F
  0.2980478524856949  0.8737797603666095  0.3179091377272698   F   F   F
  0.3065683121091567  0.8685951938597540  0.0415361194227302   F   F   F
  0.6265607890783187  0.7150544964909855  0.1290314723727306   F   F   F
  0.2254775068939807  0.0270235285891047  0.2275398722545461   F   F   F
  0.5442540274210828  0.3813987627289208  0.0359396309863627   F   F   F
  0.3788308164937106  0.2041435759404919  0.1334105030954547   F   F   F
  0.1370202990309650  0.7046968196449441  0.1327566403363605   F   F   F
  0.7045769586882216  0.0509726896981562  0.2202033044363603   F   F   F
  0.7929357952529301  0.1295041526054206  0.3162230154318166   F   F   F
  0.5391159673174712  0.8716249537842131  0.3162451866136351   F   F   F
  0.7969090446290110  0.1230080278139880  0.0358981495909063   F   F   F
  0.5463967724760010  0.8699164031445790  0.0370350138545490   F   F   F
  0.2085639110290529  0.5416170460380059  0.2236532569454539   F   F   F
  0.9508486974895902  0.2978493453070143  0.2216315739499990   F   F   F
  0.8720363512232439  0.9641267701868443  0.1296642823045460   F   F   F
  0.7153770701191462  0.2899592938874918  0.2234450554363647   F   F   F
  0.4576406936180391  0.2909350191493445  0.2212427282727276   F   F   F
  0.8754952507754368  0.4570332552356646  0.1289402077090926   F   F   F
  0.1280802376379100  0.2061871464271974  0.1293457843363655   F   F   F
  0.7920109362154477  0.6217651118845851  0.0414976089772736   F   F   F
  0.2975223793196520  0.6287043760646469  0.0435603156136395   F   F   F
  0.3861497401569878  0.7125257726301442  0.1296682481727274   F   F   F
  0.3823461753116746  0.4514638794503369  0.1268844718136393   F   F   F
  0.7929805004478823  0.3796504842592370  0.3200520950636374   F   F   F
  0.7914206266351727  0.3768939204309305  0.0409385091409078   F   F   F
  0.9555693512696308  0.0531631178502820  0.2214880919863660   F   F   F
  0.4584545657312020  0.7960231346345452  0.2247776276181810   F   F   F
  0.2152089933902843  0.7966559648940503  0.2245859683454512   F   F   F
  0.4624246772160703  0.0294128642564573  0.2226737948363606   F   F   F
  0.3705338586426236  0.2016759602628539  0.4986337521318155   T   T   T
 
  0.00000000E+00  0.00000000E+00  0.00000000E+00
  0.00000000E+00  0.00000000E+00  0.00000000E+00
  0.00000000E+00  0.00000000E+00  0.00000000E+00
  0.00000000E+00  0.00000000E+00  0.00000000E+00
  0.00000000E+00  0.00000000E+00  0.00000000E+00
  0.00000000E+00  0.00000000E+00  0.00000000E+00
  0.00000000E+00  0.00000000E+00  0.00000000E+00
  0.00000000E+00  0.00000000E+00  0.00000000E+00
  0.00000000E+00  0.00000000E+00  0.00000000E+00
  0.00000000E+00  0.00000000E+00  0.00000000E+00
  0.00000000E+00  0.00000000E+00  0.00000000E+00
  0.00000000E+00  0.00000000E+00  0.00000000E+00
  0.00000000E+00  0.00000000E+00  0.00000000E+00
  0.00000000E+00  0.00000000E+00  0.00000000E+00
  0.00000000E+00  0.00000000E+00  0.00000000E+00
  0.00000000E+00  0.00000000E+00  0.00000000E+00
  0.00000000E+00  0.00000000E+00  0.00000000E+00
  0.00000000E+00  0.00000000E+00  0.00000000E+00
  0.00000000E+00  0.00000000E+00  0.00000000E+00
  0.00000000E+00  0.00000000E+00  0.00000000E+00
  0.00000000E+00  0.00000000E+00  0.00000000E+00
  0.00000000E+00  0.00000000E+00  0.00000000E+00
  0.00000000E+00  0.00000000E+00  0.00000000E+00
  0.00000000E+00  0.00000000E+00  0.00000000E+00
  0.00000000E+00  0.00000000E+00  0.00000000E+00
  0.00000000E+00  0.00000000E+00  0.00000000E+00
  0.00000000E+00  0.00000000E+00  0.00000000E+00
  0.00000000E+00  0.00000000E+00  0.00000000E+00
  0.00000000E+00  0.00000000E+00  0.00000000E+00
  0.00000000E+00  0.00000000E+00  0.00000000E+00
  0.00000000E+00  0.00000000E+00  0.00000000E+00
  0.00000000E+00  0.00000000E+00  0.00000000E+00
  0.00000000E+00  0.00000000E+00  0.00000000E+00
  0.00000000E+00  0.00000000E+00  0.00000000E+00
  0.00000000E+00  0.00000000E+00  0.00000000E+00
  0.00000000E+00  0.00000000E+00  0.00000000E+00
  0.00000000E+00  0.00000000E+00  0.00000000E+00
  0.00000000E+00  0.00000000E+00  0.00000000E+00
  0.00000000E+00  0.00000000E+00  0.00000000E+00
  0.00000000E+00  0.00000000E+00  0.00000000E+00
  0.00000000E+00  0.00000000E+00  0.00000000E+00
  0.00000000E+00  0.00000000E+00  0.00000000E+00
  0.00000000E+00  0.00000000E+00  0.00000000E+00
  0.00000000E+00  0.00000000E+00  0.00000000E+00
  0.00000000E+00  0.00000000E+00  0.00000000E+00
  0.00000000E+00  0.00000000E+00  0.00000000E+00
  0.00000000E+00  0.00000000E+00  0.00000000E+00
  0.00000000E+00  0.00000000E+00  0.00000000E+00
  0.00000000E+00  0.00000000E+00  0.00000000E+00
  0.00000000E+00  0.00000000E+00  0.00000000E+00
  0.00000000E+00  0.00000000E+00  0.00000000E+00
  0.00000000E+00  0.00000000E+00  0.00000000E+00
  0.00000000E+00  0.00000000E+00  0.00000000E+00
  0.00000000E+00  0.00000000E+00  0.00000000E+00
  0.00000000E+00  0.00000000E+00  0.00000000E+00
  0.00000000E+00  0.00000000E+00  0.00000000E+00
  0.00000000E+00  0.00000000E+00  0.00000000E+00
  0.00000000E+00  0.00000000E+00  0.00000000E+00
  0.00000000E+00  0.00000000E+00  0.00000000E+00
  0.00000000E+00  0.00000000E+00  0.00000000E+00
  0.00000000E+00  0.00000000E+00  0.00000000E+00
  0.00000000E+00  0.00000000E+00  0.00000000E+00
  0.00000000E+00  0.00000000E+00  0.00000000E+00
  0.00000000E+00  0.00000000E+00  0.00000000E+00
  0.00000000E+00  0.00000000E+00  0.00000000E+00
  0.00000000E+00  0.00000000E+00  0.00000000E+00
  0.00000000E+00  0.00000000E+00  0.00000000E+00
  0.00000000E+00  0.00000000E+00  0.00000000E+00
  0.00000000E+00  0.00000000E+00  0.00000000E+00
  0.00000000E+00  0.00000000E+00  0.00000000E+00
  0.00000000E+00  0.00000000E+00  0.00000000E+00
  0.00000000E+00  0.00000000E+00  0.00000000E+00
  0.00000000E+00  0.00000000E+00  0.00000000E+00
  0.00000000E+00  0.00000000E+00  0.00000000E+00
  0.00000000E+00  0.00000000E+00  0.00000000E+00
  0.00000000E+00  0.00000000E+00  0.00000000E+00
  0.00000000E+00  0.00000000E+00  0.00000000E+00
  0.00000000E+00  0.00000000E+00  0.00000000E+00
  0.00000000E+00  0.00000000E+00  0.00000000E+00
  0.00000000E+00  0.00000000E+00  0.00000000E+00
  0.00000000E+00  0.00000000E+00  0.00000000E+00
