10.46-high                              
   1.00000000000000     
    10.4600000381000005    0.0000000000000000    0.0000000000000000
     5.2300000191000002    9.0586257565999997    0.0000000000000000
     0.0000000000000000    0.0000000000000000   22.0000000000000000
   Pt   Fe   Co   Cu   Ni   H 
    42    10     9    10     9     1
Selective dynamics
Direct
  0.7784264145332997  0.8674197724389927  0.3230961157636330   F   F   F
  0.0402149326525461  0.8681091015566551  0.3265967198363668   F   F   F
  0.0340126717810776  0.6185745743516762  0.3272107565227245   F   F   F
  0.0304968096870510  0.3670352388912406  0.3259952997227273   F   F   F
  0.2875170203477992  0.1091973212470236  0.3236127990863622   F   F   F
  0.2858630582309161  0.3692110397057959  0.3233750826181847   F   F   F
  0.8646688719993207  0.7049857790015324  0.1222998450000006   F   F   F
  0.8687420688140151  0.9503649501059925  0.4320346464727294   F   F   F
  0.1184412358882838  0.4527919679440942  0.4354536487863641   F   F   F
  0.1195365303316009  0.9505698600614139  0.4357423944272725   F   F   F
  0.8686082460162439  0.4520305688991044  0.4316354211181803   F   F   F
  0.3696106479646843  0.9498419205287334  0.4280656846454534   F   F   F
  0.8675239444002472  0.2035145775016503  0.4295257558090881   F   F   F
  0.1198888526114601  0.2028857960117136  0.4482613324454547   F   F   F
  0.6190401558203646  0.9506300977966617  0.4310085215545456   F   F   F
  0.8680049070993974  0.7024021808897629  0.4369933553454572   F   F   F
  0.3689663991553829  0.2005904178099058  0.4323179205772760   F   F   F
  0.3686620790093542  0.7036586196704135  0.4311996800272695   F   F   F
  0.6201418831396310  0.4529740967839828  0.4283512496363642   F   F   F
  0.1189506208339139  0.7022999594132529  0.4466828091045443   F   F   F
  0.6185903985797196  0.2024538305011419  0.4331153330454569   F   F   F
  0.5397866983293866  0.3728988240891695  0.3217766615136384   F   F   F
  0.5346214920275756  0.1176124806264056  0.3216873058772762   F   F   F
  0.5387088449945026  0.1180223620035363  0.0323852710000025   F   F   F
  0.1229061669992149  0.4482501310026592  0.1229069019999969   F   F   F
  0.0349406841123638  0.1168332224707385  0.3202277721772759   F   F   F
  0.0334052510011063  0.1263050589948875  0.0270631940000001   F   F   F
  0.1140217539961768  0.9592387070046513  0.1256205170000015   F   F   F
  0.3678220002704577  0.4532843667493722  0.4325854544545464   F   F   F
  0.4535746069942803  0.5294572910030624  0.2203990980000015   F   F   F
  0.6178965253290372  0.7016968916470390  0.4354169849863609   F   F   F
  0.9489900690032442  0.7827401870017567  0.2236112900000009   F   F   F
  0.7739345098589112  0.6198110533939740  0.3228151129272732   F   F   F
  0.2906716503156446  0.6221953086309497  0.3246625269045467   F   F   F
  0.3775393079994345  0.6996762390014979  0.1228007950000034   F   F   F
  0.1990148359986961  0.2847226810005736  0.2228073859999995   F   F   F
  0.6985210319978847  0.5449136329982025  0.2191953660000010   F   F   F
  0.2021375509972643  0.7918219440044751  0.2238942059999971   F   F   F
  0.4509136879990976  0.0227837570008518  0.2188853569999978   F   F   F
  0.6963785559985993  0.0426407060053862  0.2154283309999983   F   F   F
  0.7850964587374705  0.1216376328050828  0.3200180607545420   F   F   F
  0.9473702909993094  0.2812973029980199  0.2183517329999987   F   F   F
  0.7886738530021518  0.8644281519958810  0.0287872629999981   F   F   F
  0.0450368569986850  0.8626276869984011  0.0295607660000030   F   F   F
  0.0419381929998366  0.6177767709989226  0.0278294189999997   F   F   F
  0.6176174129956635  0.2140363110030634  0.1243319940000021   F   F   F
  0.3690119070012230  0.9519866300047681  0.1225268520000000   F   F   F
  0.0249286510000459  0.3766440390049368  0.0322170279999980   F   F   F
  0.8625312130032441  0.2106725069980442  0.1232886749999977   F   F   F
  0.9476742869988115  0.5365924040032795  0.2262523169999966   F   F   F
  0.5335813694413147  0.6218588107909966  0.3268596336136369   F   F   F
  0.2883772690024173  0.1137155559991498  0.0325338950000003   F   F   F
  0.5504824240023964  0.6126948950017308  0.0356175679999993   F   F   F
  0.2897445219979105  0.3746422300013208  0.0322482019999981   F   F   F
  0.6142260530037902  0.9430302059974167  0.1245923580000010   F   F   F
  0.6989435809945590  0.7856200150022659  0.2205963350000033   F   F   F
  0.6229743600006756  0.4501393459961704  0.1238703839999999   F   F   F
  0.2910812483247867  0.8654384976869238  0.3206448880272745   F   F   F
  0.2909193859995014  0.8681523620037197  0.0312663890000024   F   F   F
  0.6201044439971781  0.7062132159990142  0.1241399159999972   F   F   F
  0.2056123299998021  0.0307007229984464  0.2259227360000011   F   F   F
  0.5362577209991812  0.3750078080027706  0.0295104469999998   F   F   F
  0.3717786720036287  0.2013498210002851  0.1265723710000017   F   F   F
  0.1215433559978081  0.7002740610051319  0.1260872539999980   F   F   F
  0.5317003635642905  0.8628072544895105  0.3223380156409092   F   F   F
  0.7868755759996588  0.1205942250019660  0.0274876929999976   F   F   F
  0.5384324900042401  0.8622688990003837  0.0293575660000016   F   F   F
  0.2017867139986862  0.5350951929952927  0.2228108750000004   F   F   F
  0.8649812590023060  0.9577480760013586  0.1220255770000023   F   F   F
  0.7014941730027431  0.2859032169987827  0.2208637760000016   F   F   F
  0.4474190369966706  0.2876733090006880  0.2205316149999987   F   F   F
  0.8678252290042252  0.4486707169946555  0.1240203380000011   F   F   F
  0.1229174259965049  0.2020265610008920  0.1240552120000018   F   F   F
  0.7843223469946352  0.6138231070037037  0.0322942649999973   F   F   F
  0.2837197769995612  0.6160386309958952  0.0336797160000017   F   F   F
  0.3761449209956851  0.4443194180052643  0.1229033580000021   F   F   F
  0.7819738280477750  0.3719390572510619  0.3213749519954519   F   F   F
  0.7825934670013694  0.3730426879969002  0.0335873089999978   F   F   F
  0.9480028170031005  0.0375464239983856  0.2205562589999985   F   F   F
  0.4523283130002156  0.7840277900017441  0.2263070449999987   F   F   F
  0.0460766771105554  0.1123117825856497  0.4880960553045448   T   T   T
 
  0.00000000E+00  0.00000000E+00  0.00000000E+00
  0.00000000E+00  0.00000000E+00  0.00000000E+00
  0.00000000E+00  0.00000000E+00  0.00000000E+00
  0.00000000E+00  0.00000000E+00  0.00000000E+00
  0.00000000E+00  0.00000000E+00  0.00000000E+00
  0.00000000E+00  0.00000000E+00  0.00000000E+00
  0.00000000E+00  0.00000000E+00  0.00000000E+00
  0.00000000E+00  0.00000000E+00  0.00000000E+00
  0.00000000E+00  0.00000000E+00  0.00000000E+00
  0.00000000E+00  0.00000000E+00  0.00000000E+00
  0.00000000E+00  0.00000000E+00  0.00000000E+00
  0.00000000E+00  0.00000000E+00  0.00000000E+00
  0.00000000E+00  0.00000000E+00  0.00000000E+00
  0.00000000E+00  0.00000000E+00  0.00000000E+00
  0.00000000E+00  0.00000000E+00  0.00000000E+00
  0.00000000E+00  0.00000000E+00  0.00000000E+00
  0.00000000E+00  0.00000000E+00  0.00000000E+00
  0.00000000E+00  0.00000000E+00  0.00000000E+00
  0.00000000E+00  0.00000000E+00  0.00000000E+00
  0.00000000E+00  0.00000000E+00  0.00000000E+00
  0.00000000E+00  0.00000000E+00  0.00000000E+00
  0.00000000E+00  0.00000000E+00  0.00000000E+00
  0.00000000E+00  0.00000000E+00  0.00000000E+00
  0.00000000E+00  0.00000000E+00  0.00000000E+00
  0.00000000E+00  0.00000000E+00  0.00000000E+00
  0.00000000E+00  0.00000000E+00  0.00000000E+00
  0.00000000E+00  0.00000000E+00  0.00000000E+00
  0.00000000E+00  0.00000000E+00  0.00000000E+00
  0.00000000E+00  0.00000000E+00  0.00000000E+00
  0.00000000E+00  0.00000000E+00  0.00000000E+00
  0.00000000E+00  0.00000000E+00  0.00000000E+00
  0.00000000E+00  0.00000000E+00  0.00000000E+00
  0.00000000E+00  0.00000000E+00  0.00000000E+00
  0.00000000E+00  0.00000000E+00  0.00000000E+00
  0.00000000E+00  0.00000000E+00  0.00000000E+00
  0.00000000E+00  0.00000000E+00  0.00000000E+00
  0.00000000E+00  0.00000000E+00  0.00000000E+00
  0.00000000E+00  0.00000000E+00  0.00000000E+00
  0.00000000E+00  0.00000000E+00  0.00000000E+00
  0.00000000E+00  0.00000000E+00  0.00000000E+00
  0.00000000E+00  0.00000000E+00  0.00000000E+00
  0.00000000E+00  0.00000000E+00  0.00000000E+00
  0.00000000E+00  0.00000000E+00  0.00000000E+00
  0.00000000E+00  0.00000000E+00  0.00000000E+00
  0.00000000E+00  0.00000000E+00  0.00000000E+00
  0.00000000E+00  0.00000000E+00  0.00000000E+00
  0.00000000E+00  0.00000000E+00  0.00000000E+00
  0.00000000E+00  0.00000000E+00  0.00000000E+00
  0.00000000E+00  0.00000000E+00  0.00000000E+00
  0.00000000E+00  0.00000000E+00  0.00000000E+00
  0.00000000E+00  0.00000000E+00  0.00000000E+00
  0.00000000E+00  0.00000000E+00  0.00000000E+00
  0.00000000E+00  0.00000000E+00  0.00000000E+00
  0.00000000E+00  0.00000000E+00  0.00000000E+00
  0.00000000E+00  0.00000000E+00  0.00000000E+00
  0.00000000E+00  0.00000000E+00  0.00000000E+00
  0.00000000E+00  0.00000000E+00  0.00000000E+00
  0.00000000E+00  0.00000000E+00  0.00000000E+00
  0.00000000E+00  0.00000000E+00  0.00000000E+00
  0.00000000E+00  0.00000000E+00  0.00000000E+00
  0.00000000E+00  0.00000000E+00  0.00000000E+00
  0.00000000E+00  0.00000000E+00  0.00000000E+00
  0.00000000E+00  0.00000000E+00  0.00000000E+00
  0.00000000E+00  0.00000000E+00  0.00000000E+00
  0.00000000E+00  0.00000000E+00  0.00000000E+00
  0.00000000E+00  0.00000000E+00  0.00000000E+00
  0.00000000E+00  0.00000000E+00  0.00000000E+00
  0.00000000E+00  0.00000000E+00  0.00000000E+00
  0.00000000E+00  0.00000000E+00  0.00000000E+00
  0.00000000E+00  0.00000000E+00  0.00000000E+00
  0.00000000E+00  0.00000000E+00  0.00000000E+00
  0.00000000E+00  0.00000000E+00  0.00000000E+00
  0.00000000E+00  0.00000000E+00  0.00000000E+00
  0.00000000E+00  0.00000000E+00  0.00000000E+00
  0.00000000E+00  0.00000000E+00  0.00000000E+00
  0.00000000E+00  0.00000000E+00  0.00000000E+00
  0.00000000E+00  0.00000000E+00  0.00000000E+00
  0.00000000E+00  0.00000000E+00  0.00000000E+00
  0.00000000E+00  0.00000000E+00  0.00000000E+00
  0.00000000E+00  0.00000000E+00  0.00000000E+00
  0.00000000E+00  0.00000000E+00  0.00000000E+00
