Pt   H                                  
   1.00000000000000     
    11.2227001190000006    0.0000000000000000    0.0000000000000000
     5.6113500595000003    9.7191434021000003    0.0000000000000000
     0.0000000000000000    0.0000000000000000   22.0000000000000000
   Pt   H 
    80    17
Direct
  0.7854032393917549  0.8690741650588407  0.3261896272530933
  0.0351578614448869  0.8689664796204468  0.3262678428991492
  0.0351975728128835  0.6189128664935737  0.3261184340897429
  0.7852230655122483  0.8687837947617751  0.0208820600135979
  0.0347772486718938  0.8687289345837925  0.0212389366934360
  0.0350044589310201  0.6190013703821862  0.0211793749779332
  0.6185217946108352  0.2020288255692222  0.1243611877611173
  0.3683274687594604  0.9522915458072774  0.1243274958470124
  0.0356074406675830  0.3687734480743075  0.3263266431397511
  0.0355818950168540  0.3678788827190616  0.0212724788212171
  0.8685810456939720  0.2019908013681686  0.1244252453299666
  0.9520969439571090  0.5352523812816870  0.2245704152989632
  0.2851568422689681  0.1191474864961251  0.3263385349784826
  0.5358690759567750  0.6193943063073917  0.3247601569345733
  0.2843657491290728  0.3678825407468551  0.3251258630042102
  0.2841413227149872  0.1192266505408170  0.0213409453387214
  0.5351073877304060  0.6185856004883732  0.0210126534610851
  0.2850554308642188  0.3685988962275601  0.0209918616681009
  0.6186135412559608  0.9520405482015519  0.1244242514363592
  0.7019826799253366  0.7855426999467667  0.2245396544967235
  0.8684678251350419  0.7022169268457006  0.1244188121287380
  0.6188347672506040  0.4519432680552455  0.1241695913478438
  0.2844925836006738  0.8704528359259243  0.3254434054600210
  0.2851271278683356  0.8687644038572131  0.0210361184233108
  0.6184865665261157  0.7021557061770309  0.1243081122169087
  0.2021465743357922  0.0347665321438342  0.2250118020747820
  0.8691101775178609  0.9525843787622676  0.4323353660228406
  0.1199221229658320  0.4526044720112310  0.4321551080427923
  0.1193073976660912  0.9520861566108323  0.4325968474456516
  0.8690303795348697  0.4524128924689421  0.4320252443375523
  0.3689333690637042  0.9525196367437871  0.4320254322752533
  0.8685589937501845  0.2027901736298077  0.4325427272847620
  0.1189280566621704  0.2025171590506289  0.4322922576679886
  0.6189638877520167  0.9530635302904784  0.4321690203956905
  0.8694989411519813  0.7024917154698684  0.4321435759210885
  0.3690368090419724  0.2034193751126665  0.4321737667696439
  0.3700176021310568  0.7000987021774989  0.4279968898962707
  0.6166414290598112  0.4534634268368123  0.4279995222110031
  0.1207887784269985  0.7016047709178039  0.4322084202111967
  0.6180453976994045  0.2043134852255548  0.4322561004672281
  0.5352890791925731  0.3680921542660087  0.3249777990122240
  0.5352756588837053  0.3687407237322233  0.0210734155905286
  0.5353811874801053  0.1186950522611667  0.3261237386691178
  0.5354503946920275  0.1184837979561024  0.0211915206292730
  0.8687617177793214  0.4518659058623200  0.1243312472896534
  0.1183231155423883  0.4521276684228752  0.1242433513578192
  0.0352674420033239  0.1187537191331742  0.3265653903399937
  0.0356257629068892  0.1191746635684936  0.0215121237881988
  0.1183443772780848  0.9521731625957557  0.1244249343935593
  0.3707356570368958  0.4541726979680689  0.4289241057909763
  0.4518633252007049  0.5355304750106953  0.2239702881384602
  0.6185729771792339  0.7021325465350827  0.4311666350659067
  0.3685453911528498  0.2019428374591357  0.1242479844707276
  0.1183921672756227  0.2020907058156709  0.1253468528376800
  0.9517726076271558  0.7854481711067223  0.2246508410158867
  0.7859818425054641  0.6189408553260023  0.3259378133286503
  0.2845133069823333  0.6188361681088352  0.3250138836593237
  0.7849885057290820  0.6190977047515389  0.0213025167629439
  0.2852343411709910  0.6188828378866944  0.0211095325207680
  0.3683525295794183  0.7024669423875451  0.1241724199292804
  0.3683531078811342  0.4519340217767791  0.1240669599183164
  0.2019852460054850  0.2855420984739254  0.2245387999576707
  0.7868799975993070  0.3680797094319317  0.3254218709934023
  0.7851772109039175  0.3687110430437173  0.0210432805413276
  0.9518214299434646  0.0354919586349354  0.2248457771688166
  0.4521590287235782  0.7854406926242632  0.2243307413236550
  0.7018492719686762  0.5357685601224915  0.2243051520892863
  0.2015501109306612  0.7854259780917232  0.2243886764071448
  0.4516060151584895  0.0357545193795659  0.2245746577248440
  0.1183553749549446  0.7021841094777201  0.1243583850896499
  0.7018683937662260  0.0354065490583224  0.2246173180470805
  0.7853277758058610  0.1187163530371436  0.3262819043738574
  0.5353794622662562  0.8695293291922894  0.3259255325855293
  0.7851809144434370  0.1182526331821947  0.0213260974954679
  0.5354228619556736  0.8686254682922439  0.0212476053202693
  0.2017606761133521  0.5358011412107189  0.2243092536327396
  0.9511990974338858  0.2856969694150351  0.2250324058917670
  0.8684866172823149  0.9519596623987781  0.1245608486413801
  0.7018584483873553  0.2851387058175945  0.2243883082584333
  0.4521818081836315  0.2853798332798121  0.2243297197419736
  0.4604973898935825  0.5433491066947980  0.5223994615168266
  0.4976179235753619  0.5808390636459677  0.5332269014416724
  0.7064811186492079  0.5376258135514931  0.4715404096773881
  0.2022713042750439  0.7858472045832698  0.4720960407717953
  0.4539747195667445  0.7899287567848177  0.4715478035525535
  0.7022779016061236  0.7858724909604362  0.4723002727951169
  0.9529195059393345  0.7853371104563180  0.4728125386228044
  0.2061423348846958  0.5346306046216256  0.4721800984574358
  0.9528927022654017  0.5360373259517033  0.4727830797653070
  0.2023479807339257  0.2859075183028921  0.4730048648078267
  0.4510456595465939  0.2896459460444518  0.4722242912447498
  0.7023990404480571  0.2856953379504574  0.4721086911364125
  0.9515438341877385  0.2860361065287123  0.4732490631278452
  0.2025305221388862  0.0351242959044242  0.4732441397008671
  0.4525044070839996  0.0364205461599880  0.4728085825407007
  0.7018537105234302  0.0364562710728933  0.4728405205283863
  0.9520401551528153  0.0355237603174388  0.4733108602142053
 
  0.00000000E+00  0.00000000E+00  0.00000000E+00
  0.00000000E+00  0.00000000E+00  0.00000000E+00
  0.00000000E+00  0.00000000E+00  0.00000000E+00
  0.00000000E+00  0.00000000E+00  0.00000000E+00
  0.00000000E+00  0.00000000E+00  0.00000000E+00
  0.00000000E+00  0.00000000E+00  0.00000000E+00
  0.00000000E+00  0.00000000E+00  0.00000000E+00
  0.00000000E+00  0.00000000E+00  0.00000000E+00
  0.00000000E+00  0.00000000E+00  0.00000000E+00
  0.00000000E+00  0.00000000E+00  0.00000000E+00
  0.00000000E+00  0.00000000E+00  0.00000000E+00
  0.00000000E+00  0.00000000E+00  0.00000000E+00
  0.00000000E+00  0.00000000E+00  0.00000000E+00
  0.00000000E+00  0.00000000E+00  0.00000000E+00
  0.00000000E+00  0.00000000E+00  0.00000000E+00
  0.00000000E+00  0.00000000E+00  0.00000000E+00
  0.00000000E+00  0.00000000E+00  0.00000000E+00
  0.00000000E+00  0.00000000E+00  0.00000000E+00
  0.00000000E+00  0.00000000E+00  0.00000000E+00
  0.00000000E+00  0.00000000E+00  0.00000000E+00
  0.00000000E+00  0.00000000E+00  0.00000000E+00
  0.00000000E+00  0.00000000E+00  0.00000000E+00
  0.00000000E+00  0.00000000E+00  0.00000000E+00
  0.00000000E+00  0.00000000E+00  0.00000000E+00
  0.00000000E+00  0.00000000E+00  0.00000000E+00
  0.00000000E+00  0.00000000E+00  0.00000000E+00
  0.00000000E+00  0.00000000E+00  0.00000000E+00
  0.00000000E+00  0.00000000E+00  0.00000000E+00
  0.00000000E+00  0.00000000E+00  0.00000000E+00
  0.00000000E+00  0.00000000E+00  0.00000000E+00
  0.00000000E+00  0.00000000E+00  0.00000000E+00
  0.00000000E+00  0.00000000E+00  0.00000000E+00
  0.00000000E+00  0.00000000E+00  0.00000000E+00
  0.00000000E+00  0.00000000E+00  0.00000000E+00
  0.00000000E+00  0.00000000E+00  0.00000000E+00
  0.00000000E+00  0.00000000E+00  0.00000000E+00
  0.00000000E+00  0.00000000E+00  0.00000000E+00
  0.00000000E+00  0.00000000E+00  0.00000000E+00
  0.00000000E+00  0.00000000E+00  0.00000000E+00
  0.00000000E+00  0.00000000E+00  0.00000000E+00
  0.00000000E+00  0.00000000E+00  0.00000000E+00
  0.00000000E+00  0.00000000E+00  0.00000000E+00
  0.00000000E+00  0.00000000E+00  0.00000000E+00
  0.00000000E+00  0.00000000E+00  0.00000000E+00
  0.00000000E+00  0.00000000E+00  0.00000000E+00
  0.00000000E+00  0.00000000E+00  0.00000000E+00
  0.00000000E+00  0.00000000E+00  0.00000000E+00
  0.00000000E+00  0.00000000E+00  0.00000000E+00
  0.00000000E+00  0.00000000E+00  0.00000000E+00
  0.00000000E+00  0.00000000E+00  0.00000000E+00
  0.00000000E+00  0.00000000E+00  0.00000000E+00
  0.00000000E+00  0.00000000E+00  0.00000000E+00
  0.00000000E+00  0.00000000E+00  0.00000000E+00
  0.00000000E+00  0.00000000E+00  0.00000000E+00
  0.00000000E+00  0.00000000E+00  0.00000000E+00
  0.00000000E+00  0.00000000E+00  0.00000000E+00
  0.00000000E+00  0.00000000E+00  0.00000000E+00
  0.00000000E+00  0.00000000E+00  0.00000000E+00
  0.00000000E+00  0.00000000E+00  0.00000000E+00
  0.00000000E+00  0.00000000E+00  0.00000000E+00
  0.00000000E+00  0.00000000E+00  0.00000000E+00
  0.00000000E+00  0.00000000E+00  0.00000000E+00
  0.00000000E+00  0.00000000E+00  0.00000000E+00
  0.00000000E+00  0.00000000E+00  0.00000000E+00
  0.00000000E+00  0.00000000E+00  0.00000000E+00
  0.00000000E+00  0.00000000E+00  0.00000000E+00
  0.00000000E+00  0.00000000E+00  0.00000000E+00
  0.00000000E+00  0.00000000E+00  0.00000000E+00
  0.00000000E+00  0.00000000E+00  0.00000000E+00
  0.00000000E+00  0.00000000E+00  0.00000000E+00
  0.00000000E+00  0.00000000E+00  0.00000000E+00
  0.00000000E+00  0.00000000E+00  0.00000000E+00
  0.00000000E+00  0.00000000E+00  0.00000000E+00
  0.00000000E+00  0.00000000E+00  0.00000000E+00
  0.00000000E+00  0.00000000E+00  0.00000000E+00
  0.00000000E+00  0.00000000E+00  0.00000000E+00
  0.00000000E+00  0.00000000E+00  0.00000000E+00
  0.00000000E+00  0.00000000E+00  0.00000000E+00
  0.00000000E+00  0.00000000E+00  0.00000000E+00
  0.00000000E+00  0.00000000E+00  0.00000000E+00
  0.00000000E+00  0.00000000E+00  0.00000000E+00
  0.00000000E+00  0.00000000E+00  0.00000000E+00
  0.00000000E+00  0.00000000E+00  0.00000000E+00
  0.00000000E+00  0.00000000E+00  0.00000000E+00
  0.00000000E+00  0.00000000E+00  0.00000000E+00
  0.00000000E+00  0.00000000E+00  0.00000000E+00
  0.00000000E+00  0.00000000E+00  0.00000000E+00
  0.00000000E+00  0.00000000E+00  0.00000000E+00
  0.00000000E+00  0.00000000E+00  0.00000000E+00
  0.00000000E+00  0.00000000E+00  0.00000000E+00
  0.00000000E+00  0.00000000E+00  0.00000000E+00
  0.00000000E+00  0.00000000E+00  0.00000000E+00
  0.00000000E+00  0.00000000E+00  0.00000000E+00
  0.00000000E+00  0.00000000E+00  0.00000000E+00
  0.00000000E+00  0.00000000E+00  0.00000000E+00
  0.00000000E+00  0.00000000E+00  0.00000000E+00
  0.00000000E+00  0.00000000E+00  0.00000000E+00
