11.26                                   
   1.00000000000000     
    11.2227001190000006    0.0000000000000000    0.0000000000000000
     5.6113500595000003    9.7191434021000003    0.0000000000000000
     0.0000000000000000    0.0000000000000000   22.0000000000000000
   Pt   Fe   Co   Ni   H 
    32    16    15    17     1
Selective dynamics
Direct
  0.7826506922463494  0.8709663139830823  0.3044072870499974   F   F   F
  0.0295973729650498  0.8699899258892501  0.2994239119000000   F   F   F
  0.2811072638504299  0.3599170101702782  0.3110038205999999   F   F   F
  0.8745777797230474  0.9547612703394179  0.4054386440500011   F   F   F
  0.1117762298216860  0.4573352264191897  0.4102832297954535   F   F   F
  0.1263981548018336  0.9474947052648943  0.4019642900227254   F   F   F
  0.8682654641369894  0.4468245412102547  0.4113403519636378   F   F   F
  0.3731696071647406  0.9517477671747656  0.4159442737136345   F   F   F
  0.8713699134889623  0.2004304430963657  0.4055031287499986   F   F   F
  0.1226710069911476  0.2032806782409580  0.4107653774045446   F   F   F
  0.6268705633915133  0.9451552562559371  0.4146410204727289   F   F   F
  0.8731474543116420  0.7032099082130259  0.4111406190727251   F   F   F
  0.3649790514254079  0.2055621005826822  0.4169717176636354   F   F   F
  0.3693049869461404  0.7015136751070870  0.4050477747545429   F   F   F
  0.6192795503004973  0.4548626102424578  0.4081782126954536   F   F   F
  0.1162680888571188  0.7026961824047504  0.4075167087227243   F   F   F
  0.6249510372040064  0.2048432852189279  0.4133198987863622   F   F   F
  0.5393903024091955  0.3638026108901755  0.3076077112318174   F   F   F
  0.5373213708790416  0.1119891489269307  0.3137761557318157   F   F   F
  0.5375076487171242  0.1169073699596268  0.0531220763272700   F   F   F
  0.1060159474172693  0.4196903701841279  0.1184692797545424   F   F   F
  0.0487583912670573  0.1249167814148819  0.3062119544136337   F   F   F
  0.0245780338318511  0.1097680969569268  0.0430117810681807   F   F   F
  0.1169260853325511  0.9524257744669029  0.1460113291272762   F   F   F
  0.3691325646161729  0.4552402516094176  0.4086651548772693   F   F   F
  0.4507798513754153  0.5618345619141820  0.2220556187454577   F   F   F
  0.6208458093161582  0.7033809845858343  0.4120780661636374   F   F   F
  0.9486300860078885  0.7563834836835071  0.2065586565000004   F   F   F
  0.7981903993766366  0.6155518109556155  0.3125501611045465   F   F   F
  0.2674877392266239  0.6140250363844331  0.3054956359227248   F   F   F
  0.1912446586299481  0.2608944894209628  0.2240584526999996   F   F   F
  0.6997735942738998  0.5388438066433352  0.2217140734181839   F   F   F
  0.0332098724277188  0.6215402722111065  0.3112277235681802   F   F   F
  0.7908872107797080  0.8845713640095454  0.0590154774772742   F   F   F
  0.0431671302096959  0.8645701532281578  0.0570202552818202   F   F   F
  0.0421493158309616  0.6575489276883317  0.0841343607909124   F   F   F
  0.6242636984160299  0.2112047253214158  0.1379027481681803   F   F   F
  0.3765739752082027  0.9544076052521007  0.1361219543000018   F   F   F
  0.0287872561775515  0.3724621734892608  0.3173231759909072   F   F   F
  0.9829997705121372  0.3538927260355891  0.0428426668363642   F   F   F
  0.8658294734042045  0.2056136287451196  0.1348809598181830   F   F   F
  0.9483266235558290  0.5214631290762668  0.2168444122590927   F   F   F
  0.3008609760919612  0.1076045835864505  0.3199653665227302   F   F   F
  0.5404030952788403  0.6305187246723705  0.3180028977045453   F   F   F
  0.2847406250402855  0.1106504997001707  0.0527892048909067   F   F   F
  0.5347394070459259  0.3670804573712871  0.0500104259863647   F   F   F
  0.3590277917235056  0.2092973479906135  0.1353676211954564   F   F   F
  0.1795593542393732  0.6914409692265622  0.1579673919181843   F   F   F
  0.5212171467669151  0.6245286249288711  0.0521856766999989   F   F   F
  0.3151048399582024  0.3737904076315033  0.0562376898136350   F   F   F
  0.6422458949394994  0.9322045230593474  0.1407324841545474   F   F   F
  0.6833132047318244  0.7857360920973733  0.2233291051454529   F   F   F
  0.8295527645934442  0.6808095917866908  0.1286545647090875   F   F   F
  0.6085657030912799  0.4600908835169406  0.1304246345863618   F   F   F
  0.3203181692238104  0.8754422102426815  0.3184707309000032   F   F   F
  0.2872073272789635  0.8837786298990196  0.0528704927409080   F   F   F
  0.6032048154532390  0.7172003307507424  0.1319261668636358   F   F   F
  0.2439096344744200  0.0149315574630435  0.2294272331681810   F   F   F
  0.6976537942059124  0.0566164128909890  0.2220366322545431   F   F   F
  0.7750839752811558  0.1232261712324600  0.3131353040727305   F   F   F
  0.5370126078203796  0.8711222426114915  0.3174199244045468   F   F   F
  0.7741422871075372  0.1303526627281002  0.0510236411136376   F   F   F
  0.5357933357529490  0.8795584207814997  0.0554483186181827   F   F   F
  0.1814597450678335  0.5098063442843568  0.2171239293045488   F   F   F
  0.9349898804628438  0.3002506672727421  0.2236450676863626   F   F   F
  0.8637922699629215  0.9774248099011871  0.1391290802590888   F   F   F
  0.7103683752906917  0.2901671282358720  0.2217569249545477   F   F   F
  0.4576128818555389  0.2618566628464478  0.2213986287363667   F   F   F
  0.8581290774886767  0.4368715359506439  0.1313162540363635   F   F   F
  0.1100745241357401  0.1878027748418276  0.1340892703363608   F   F   F
  0.7528583583272024  0.5916146920990570  0.0478918017818160   F   F   F
  0.3015051675749518  0.6160063720539810  0.0630200835090875   F   F   F
  0.3734188990724761  0.7330867030792589  0.1363920454954552   F   F   F
  0.3936768738036420  0.4342038804354047  0.1433610557727292   F   F   F
  0.7851920225643525  0.3678272407965082  0.3142050157090921   F   F   F
  0.7669098264074421  0.3554787377304791  0.0472348453454572   F   F   F
  0.9208175640634693  0.0708794067542158  0.2271199104590877   F   F   F
  0.4649313895279050  0.7934409722809264  0.2269696011863616   F   F   F
  0.2368418030058024  0.8043381320118073  0.2355582224818207   F   F   F
  0.4569958715132501  0.0304147897165663  0.2234290062500008   F   F   F
  0.5392349994307750  0.1170546360242213  0.4504051992136334   T   T   T
 
  0.00000000E+00  0.00000000E+00  0.00000000E+00
  0.00000000E+00  0.00000000E+00  0.00000000E+00
  0.00000000E+00  0.00000000E+00  0.00000000E+00
  0.00000000E+00  0.00000000E+00  0.00000000E+00
  0.00000000E+00  0.00000000E+00  0.00000000E+00
  0.00000000E+00  0.00000000E+00  0.00000000E+00
  0.00000000E+00  0.00000000E+00  0.00000000E+00
  0.00000000E+00  0.00000000E+00  0.00000000E+00
  0.00000000E+00  0.00000000E+00  0.00000000E+00
  0.00000000E+00  0.00000000E+00  0.00000000E+00
  0.00000000E+00  0.00000000E+00  0.00000000E+00
  0.00000000E+00  0.00000000E+00  0.00000000E+00
  0.00000000E+00  0.00000000E+00  0.00000000E+00
  0.00000000E+00  0.00000000E+00  0.00000000E+00
  0.00000000E+00  0.00000000E+00  0.00000000E+00
  0.00000000E+00  0.00000000E+00  0.00000000E+00
  0.00000000E+00  0.00000000E+00  0.00000000E+00
  0.00000000E+00  0.00000000E+00  0.00000000E+00
  0.00000000E+00  0.00000000E+00  0.00000000E+00
  0.00000000E+00  0.00000000E+00  0.00000000E+00
  0.00000000E+00  0.00000000E+00  0.00000000E+00
  0.00000000E+00  0.00000000E+00  0.00000000E+00
  0.00000000E+00  0.00000000E+00  0.00000000E+00
  0.00000000E+00  0.00000000E+00  0.00000000E+00
  0.00000000E+00  0.00000000E+00  0.00000000E+00
  0.00000000E+00  0.00000000E+00  0.00000000E+00
  0.00000000E+00  0.00000000E+00  0.00000000E+00
  0.00000000E+00  0.00000000E+00  0.00000000E+00
  0.00000000E+00  0.00000000E+00  0.00000000E+00
  0.00000000E+00  0.00000000E+00  0.00000000E+00
  0.00000000E+00  0.00000000E+00  0.00000000E+00
  0.00000000E+00  0.00000000E+00  0.00000000E+00
  0.00000000E+00  0.00000000E+00  0.00000000E+00
  0.00000000E+00  0.00000000E+00  0.00000000E+00
  0.00000000E+00  0.00000000E+00  0.00000000E+00
  0.00000000E+00  0.00000000E+00  0.00000000E+00
  0.00000000E+00  0.00000000E+00  0.00000000E+00
  0.00000000E+00  0.00000000E+00  0.00000000E+00
  0.00000000E+00  0.00000000E+00  0.00000000E+00
  0.00000000E+00  0.00000000E+00  0.00000000E+00
  0.00000000E+00  0.00000000E+00  0.00000000E+00
  0.00000000E+00  0.00000000E+00  0.00000000E+00
  0.00000000E+00  0.00000000E+00  0.00000000E+00
  0.00000000E+00  0.00000000E+00  0.00000000E+00
  0.00000000E+00  0.00000000E+00  0.00000000E+00
  0.00000000E+00  0.00000000E+00  0.00000000E+00
  0.00000000E+00  0.00000000E+00  0.00000000E+00
  0.00000000E+00  0.00000000E+00  0.00000000E+00
  0.00000000E+00  0.00000000E+00  0.00000000E+00
  0.00000000E+00  0.00000000E+00  0.00000000E+00
  0.00000000E+00  0.00000000E+00  0.00000000E+00
  0.00000000E+00  0.00000000E+00  0.00000000E+00
  0.00000000E+00  0.00000000E+00  0.00000000E+00
  0.00000000E+00  0.00000000E+00  0.00000000E+00
  0.00000000E+00  0.00000000E+00  0.00000000E+00
  0.00000000E+00  0.00000000E+00  0.00000000E+00
  0.00000000E+00  0.00000000E+00  0.00000000E+00
  0.00000000E+00  0.00000000E+00  0.00000000E+00
  0.00000000E+00  0.00000000E+00  0.00000000E+00
  0.00000000E+00  0.00000000E+00  0.00000000E+00
  0.00000000E+00  0.00000000E+00  0.00000000E+00
  0.00000000E+00  0.00000000E+00  0.00000000E+00
  0.00000000E+00  0.00000000E+00  0.00000000E+00
  0.00000000E+00  0.00000000E+00  0.00000000E+00
  0.00000000E+00  0.00000000E+00  0.00000000E+00
  0.00000000E+00  0.00000000E+00  0.00000000E+00
  0.00000000E+00  0.00000000E+00  0.00000000E+00
  0.00000000E+00  0.00000000E+00  0.00000000E+00
  0.00000000E+00  0.00000000E+00  0.00000000E+00
  0.00000000E+00  0.00000000E+00  0.00000000E+00
  0.00000000E+00  0.00000000E+00  0.00000000E+00
  0.00000000E+00  0.00000000E+00  0.00000000E+00
  0.00000000E+00  0.00000000E+00  0.00000000E+00
  0.00000000E+00  0.00000000E+00  0.00000000E+00
  0.00000000E+00  0.00000000E+00  0.00000000E+00
  0.00000000E+00  0.00000000E+00  0.00000000E+00
  0.00000000E+00  0.00000000E+00  0.00000000E+00
  0.00000000E+00  0.00000000E+00  0.00000000E+00
  0.00000000E+00  0.00000000E+00  0.00000000E+00
  0.00000000E+00  0.00000000E+00  0.00000000E+00
  0.00000000E+00  0.00000000E+00  0.00000000E+00
