Pt111                                   
   1.00000000000000     
    11.2227001190000006    0.0000000000000000    0.0000000000000000
     5.6113500595000003    9.7191434021000003    0.0000000000000000
     0.0000000000000000    0.0000000000000000   22.0000000000000000
   Pt
    80
Direct
  0.7828524892089206  0.8695811167380683  0.3263211040016856
  0.0327256594959380  0.8707708341436557  0.3265506367389719
  0.0338691209177568  0.6201639596491617  0.3268912638144457
  0.7877080507666179  0.8672178215654682  0.0236947416490239
  0.0393451235143800  0.8661380560797127  0.0239122705265586
  0.0371443585057278  0.6172529399558826  0.0241859346577655
  0.6202208958918263  0.2018591919769293  0.1264354839719246
  0.3700613877026697  0.9515256178873628  0.1264846343218906
  0.0348281363302476  0.3698850519368264  0.3268437849709329
  0.0380167708895982  0.3680567120976050  0.0243280006842141
  0.8704056068781441  0.2018520629464078  0.1266364854238446
  0.9509195046857286  0.5362160807378444  0.2269356722715301
  0.2850274658300975  0.1193691169894819  0.3270124246870409
  0.5335836818665669  0.6194357594676418  0.3269492608980045
  0.2852689946579190  0.3698740263666593  0.3270802305828653
  0.2878026653350076  0.1180746450890524  0.0240199845597076
  0.5373607042587096  0.6170367688714293  0.0231227670036134
  0.2881956224109743  0.3668546938931456  0.0244005370214353
  0.6198491737593201  0.9511895334597185  0.1262553210919890
  0.7004922420147253  0.7856221676316864  0.2264471443125302
  0.8687776540981673  0.7014101661249654  0.1265381866001505
  0.6186210241453409  0.4520155228300027  0.1264608965792959
  0.2833581781106744  0.8697777301824416  0.3268857708668023
  0.2879394257129064  0.8680152719727516  0.0234702743806920
  0.6184941797487866  0.7015131964123853  0.1262145406391895
  0.2025007802864565  0.0356540360005511  0.2267866201451270
  0.8653465299041372  0.9529049666500100  0.4291312457230134
  0.1174103198797525  0.4532479647595977  0.4293817122813337
  0.1168075339539030  0.9539380101563069  0.4294446370771041
  0.8668712782297945  0.4534498655824990  0.4293976119896854
  0.3675574543696953  0.9526336476566684  0.4297657587068571
  0.8672800179915470  0.2022227084073052  0.4287899976661578
  0.1171182051217627  0.2031828297467229  0.4293817529482595
  0.6159334013194950  0.9522933060130612  0.4295115561990883
  0.8673854559127392  0.7030773017621641  0.4294295196252023
  0.3674000081425959  0.2038804725314307  0.4295940839731713
  0.3659644190613847  0.7034563766407658  0.4300053047904200
  0.6179463360691173  0.4528361601115165  0.4296172922948713
  0.1161830237108887  0.7045906738636063  0.4296048082759327
  0.6176168314979122  0.2022383898327647  0.4293292713502765
  0.5354710728477130  0.3691639437951508  0.3267780892446552
  0.5363028392065701  0.3680059520408747  0.0238137700483847
  0.5346894221460019  0.1189117417528109  0.3266572656937186
  0.5387845139711658  0.1166087657424484  0.0237590366465241
  0.8691997391322133  0.4517893842734395  0.1266579839873359
  0.1196791783411228  0.4519187802071016  0.1273236374998845
  0.0346085614466105  0.1198756926876072  0.3264205581969151
  0.0384275776130494  0.1180996572060522  0.0242510164222125
  0.1203255947770785  0.9517781470793452  0.1265952516582729
  0.3685636858359445  0.4530426917350283  0.4296255064342915
  0.4509829383701742  0.5362385984149256  0.2268724391562245
  0.6164613369184337  0.7028586318331023  0.4297954173959866
  0.3709632804486276  0.2012685064400443  0.1269134678032415
  0.1207099728396273  0.2022360092336655  0.1271590419158599
  0.9505031123578220  0.7860968571968172  0.2265528803480876
  0.7835305449504730  0.6197019077939956  0.3267676973438824
  0.2837493099041026  0.6201282835602839  0.3271446637832440
  0.7872794459440513  0.6164767106706464  0.0236252997466124
  0.2870270323151090  0.6175461690006188  0.0239869444304688
  0.3689723294339231  0.7018550827830978  0.1264007289005917
  0.3690893929597365  0.4518313968235645  0.1270817891388631
  0.2032440162988109  0.2857685275623396  0.2272097933805668
  0.7847896227666382  0.3695670334851684  0.3264768334587842
  0.7870434048060204  0.3669038697489526  0.0239794748852376
  0.9519202301246494  0.0361688768584685  0.2262734928789030
  0.4507361655941224  0.7855042073415746  0.2266220031555548
  0.7005849032218521  0.5361977250155405  0.2264869907707165
  0.2009401206340087  0.7860601055749825  0.2267876664209041
  0.4523063226589557  0.0353135947954613  0.2265845408987346
  0.1190482470280685  0.7015107866203607  0.1269874013895276
  0.7018067841127404  0.0357632680530031  0.2261192424967433
  0.7843856782431047  0.1192138672112293  0.3261762424771888
  0.5332807603189096  0.8690990459753607  0.3266458664416092
  0.7888509979260121  0.1168392003861669  0.0239643372745846
  0.5377641718952546  0.8665214189943882  0.0233709196639538
  0.2014263381813137  0.5362439617726835  0.2272953865121536
  0.9523241207834303  0.2863745526811030  0.2266613640063042
  0.8703808906203179  0.9512185424882631  0.1262971951969334
  0.7021103689503931  0.2862301592043366  0.2264187245874183
  0.4527349718879350  0.2856756702387244  0.2268615590063021
 
  0.00000000E+00  0.00000000E+00  0.00000000E+00
  0.00000000E+00  0.00000000E+00  0.00000000E+00
  0.00000000E+00  0.00000000E+00  0.00000000E+00
  0.00000000E+00  0.00000000E+00  0.00000000E+00
  0.00000000E+00  0.00000000E+00  0.00000000E+00
  0.00000000E+00  0.00000000E+00  0.00000000E+00
  0.00000000E+00  0.00000000E+00  0.00000000E+00
  0.00000000E+00  0.00000000E+00  0.00000000E+00
  0.00000000E+00  0.00000000E+00  0.00000000E+00
  0.00000000E+00  0.00000000E+00  0.00000000E+00
  0.00000000E+00  0.00000000E+00  0.00000000E+00
  0.00000000E+00  0.00000000E+00  0.00000000E+00
  0.00000000E+00  0.00000000E+00  0.00000000E+00
  0.00000000E+00  0.00000000E+00  0.00000000E+00
  0.00000000E+00  0.00000000E+00  0.00000000E+00
  0.00000000E+00  0.00000000E+00  0.00000000E+00
  0.00000000E+00  0.00000000E+00  0.00000000E+00
  0.00000000E+00  0.00000000E+00  0.00000000E+00
  0.00000000E+00  0.00000000E+00  0.00000000E+00
  0.00000000E+00  0.00000000E+00  0.00000000E+00
  0.00000000E+00  0.00000000E+00  0.00000000E+00
  0.00000000E+00  0.00000000E+00  0.00000000E+00
  0.00000000E+00  0.00000000E+00  0.00000000E+00
  0.00000000E+00  0.00000000E+00  0.00000000E+00
  0.00000000E+00  0.00000000E+00  0.00000000E+00
  0.00000000E+00  0.00000000E+00  0.00000000E+00
  0.00000000E+00  0.00000000E+00  0.00000000E+00
  0.00000000E+00  0.00000000E+00  0.00000000E+00
  0.00000000E+00  0.00000000E+00  0.00000000E+00
  0.00000000E+00  0.00000000E+00  0.00000000E+00
  0.00000000E+00  0.00000000E+00  0.00000000E+00
  0.00000000E+00  0.00000000E+00  0.00000000E+00
  0.00000000E+00  0.00000000E+00  0.00000000E+00
  0.00000000E+00  0.00000000E+00  0.00000000E+00
  0.00000000E+00  0.00000000E+00  0.00000000E+00
  0.00000000E+00  0.00000000E+00  0.00000000E+00
  0.00000000E+00  0.00000000E+00  0.00000000E+00
  0.00000000E+00  0.00000000E+00  0.00000000E+00
  0.00000000E+00  0.00000000E+00  0.00000000E+00
  0.00000000E+00  0.00000000E+00  0.00000000E+00
  0.00000000E+00  0.00000000E+00  0.00000000E+00
  0.00000000E+00  0.00000000E+00  0.00000000E+00
  0.00000000E+00  0.00000000E+00  0.00000000E+00
  0.00000000E+00  0.00000000E+00  0.00000000E+00
  0.00000000E+00  0.00000000E+00  0.00000000E+00
  0.00000000E+00  0.00000000E+00  0.00000000E+00
  0.00000000E+00  0.00000000E+00  0.00000000E+00
  0.00000000E+00  0.00000000E+00  0.00000000E+00
  0.00000000E+00  0.00000000E+00  0.00000000E+00
  0.00000000E+00  0.00000000E+00  0.00000000E+00
  0.00000000E+00  0.00000000E+00  0.00000000E+00
  0.00000000E+00  0.00000000E+00  0.00000000E+00
  0.00000000E+00  0.00000000E+00  0.00000000E+00
  0.00000000E+00  0.00000000E+00  0.00000000E+00
  0.00000000E+00  0.00000000E+00  0.00000000E+00
  0.00000000E+00  0.00000000E+00  0.00000000E+00
  0.00000000E+00  0.00000000E+00  0.00000000E+00
  0.00000000E+00  0.00000000E+00  0.00000000E+00
  0.00000000E+00  0.00000000E+00  0.00000000E+00
  0.00000000E+00  0.00000000E+00  0.00000000E+00
  0.00000000E+00  0.00000000E+00  0.00000000E+00
  0.00000000E+00  0.00000000E+00  0.00000000E+00
  0.00000000E+00  0.00000000E+00  0.00000000E+00
  0.00000000E+00  0.00000000E+00  0.00000000E+00
  0.00000000E+00  0.00000000E+00  0.00000000E+00
  0.00000000E+00  0.00000000E+00  0.00000000E+00
  0.00000000E+00  0.00000000E+00  0.00000000E+00
  0.00000000E+00  0.00000000E+00  0.00000000E+00
  0.00000000E+00  0.00000000E+00  0.00000000E+00
  0.00000000E+00  0.00000000E+00  0.00000000E+00
  0.00000000E+00  0.00000000E+00  0.00000000E+00
  0.00000000E+00  0.00000000E+00  0.00000000E+00
  0.00000000E+00  0.00000000E+00  0.00000000E+00
  0.00000000E+00  0.00000000E+00  0.00000000E+00
  0.00000000E+00  0.00000000E+00  0.00000000E+00
  0.00000000E+00  0.00000000E+00  0.00000000E+00
  0.00000000E+00  0.00000000E+00  0.00000000E+00
  0.00000000E+00  0.00000000E+00  0.00000000E+00
  0.00000000E+00  0.00000000E+00  0.00000000E+00
  0.00000000E+00  0.00000000E+00  0.00000000E+00
