PtM\(2)                                 
   1.00000000000000     
    10.5600004195999997    0.0000000000000000    0.0000000000000000
     5.2800002097999998    9.1452286273999999    0.0000000000000000
     0.0000000000000000    0.0000000000000000   22.0000000000000000
   Ni   Pt   H 
    64    16     2
Selective dynamics
Direct
  0.7853772216119594  0.8690195745668774  0.3106599022909080   F   F   F
  0.0358736814580070  0.8691018602297831  0.3106257017999994   F   F   F
  0.0359284998297227  0.6188220374987949  0.3105301284545448   F   F   F
  0.7874164227977971  0.8671974162722194  0.0507952848136384   F   F   F
  0.0371812071091995  0.8676186467801656  0.0508907119909097   F   F   F
  0.0374684841738073  0.6171956253437827  0.0509625431272696   F   F   F
  0.6195540567074858  0.2015927253995997  0.1375472916636369   F   F   F
  0.3695075232167966  0.9518242491084408  0.1375177793318159   F   F   F
  0.0355337123330770  0.3689805614470814  0.3105295852727252   F   F   F
  0.0370441529486243  0.3679087439453710  0.0510122538363618   F   F   F
  0.8696832728241688  0.2017788834137235  0.1375957440090900   F   F   F
  0.9527807140036089  0.5354537435978983  0.2247680755636381   F   F   F
  0.2854968656728119  0.1190404278837036  0.3105068404227254   F   F   F
  0.5351823023553308  0.6189578501340662  0.3130722493500002   F   F   F
  0.2850511362114361  0.3685036450923675  0.3106664885409103   F   F   F
  0.2865437969577087  0.1185517643978500  0.0509036111818162   F   F   F
  0.5363140996786200  0.6178282872416645  0.0507770374954575   F   F   F
  0.2861704337189792  0.3683748117358761  0.0510002003863619   F   F   F
  0.6196234901564495  0.9517335769848856  0.1373589130318180   F   F   F
  0.7022014902055957  0.7854257798300779  0.2248333049227256   F   F   F
  0.8696404260012258  0.7014772441204471  0.1376145676590923   F   F   F
  0.6196299646022467  0.4516165522451487  0.1375203790909083   F   F   F
  0.2866974027173015  0.8666769888784458  0.3116860172181788   F   F   F
  0.2865937880566349  0.8680734555957201  0.0508346510318205   F   F   F
  0.6194335686725978  0.7016555716469099  0.1373394372999996   F   F   F
  0.2028510235766419  0.0347670123901977  0.2249693303772702   F   F   F
  0.5349912098146845  0.3708263388778903  0.3120218428909070   F   F   F
  0.5363670832523084  0.3680933396912849  0.0508732332090887   F   F   F
  0.5351546977059627  0.1194844825011927  0.3104615926681831   F   F   F
  0.5357740562855895  0.1186998764413190  0.0508076041818200   F   F   F
  0.8695889210879457  0.4517664038733358  0.1377370143909076   F   F   F
  0.1194625732134043  0.4516968078549155  0.1379299702136336   F   F   F
  0.0354852785291300  0.1190292726459106  0.3106164492727288   F   F   F
  0.0372294765921879  0.1183068973757955  0.0509084329409077   F   F   F
  0.1194236500933172  0.9519185222901285  0.1376218898500028   F   F   F
  0.4528351065898875  0.5358843610554231  0.2255893987272728   F   F   F
  0.3693977441760410  0.2019043691557201  0.1377741168545441   F   F   F
  0.1196225089457670  0.2018141881625866  0.1378220913363606   F   F   F
  0.9524427900486572  0.7856111232992333  0.2249182894000015   F   F   F
  0.7853981870068836  0.6190441570414293  0.3107283339500029   F   F   F
  0.2873349472883504  0.6186239692958253  0.3120853005454549   F   F   F
  0.7873265514095209  0.6175143423293008  0.0508263513318212   F   F   F
  0.2865996923037599  0.6174998734400674  0.0509254706590880   F   F   F
  0.3692545354116845  0.7017889581208507  0.1375475984363632   F   F   F
  0.3695484132066582  0.4516338335080263  0.1377474529818201   F   F   F
  0.2017432982467682  0.2847258521452929  0.2246317843545427   F   F   F
  0.7830531054800431  0.3702921859989345  0.3116391849318205   F   F   F
  0.7871940568885378  0.3681532496423969  0.0508772485772724   F   F   F
  0.9524598913143763  0.0356009442043401  0.2249154481181819   F   F   F
  0.4526423536689705  0.7842823437470656  0.2252979452636339   F   F   F
  0.7011170918441181  0.5358217394170453  0.2253186068590907   F   F   F
  0.2032797342973467  0.7848427684022354  0.2252014212681814   F   F   F
  0.4524191122382462  0.0357843731669547  0.2246286254136365   F   F   F
  0.1194697833192677  0.7016886593380178  0.1377196208045461   F   F   F
  0.7024709102340836  0.0354793858764637  0.2248492030909119   F   F   F
  0.7854282193478355  0.1194995413920807  0.3105707418363650   F   F   F
  0.5353272524836967  0.8691109504563244  0.3107018816409095   F   F   F
  0.7868336547289516  0.1183080422132221  0.0508386848136340   F   F   F
  0.5365155299928688  0.8682561142222056  0.0507168413227248   F   F   F
  0.2033046074305176  0.5356173431163995  0.2251658389090920   F   F   F
  0.9517521046427575  0.2858145381919357  0.2249832957681832   F   F   F
  0.8694806842594929  0.9517801275761713  0.1375034099181818   F   F   F
  0.7017993961352644  0.2862832550140766  0.2251160679818156   F   F   F
  0.4526128439717709  0.2862654135574374  0.2250982335318170   F   F   F
  0.8687216021658912  0.9531516350267779  0.4078604317227246   F   F   F
  0.1174758465799997  0.4526876875659909  0.4076753750181794   F   F   F
  0.1176969385386286  0.9535210329541144  0.4080841198272722   F   F   F
  0.8703981942272208  0.4517480565463501  0.4073006858136381   F   F   F
  0.3674107396238497  0.9546847351351744  0.4073208558954562   F   F   F
  0.8690849922855861  0.2021218146763317  0.4080847912954511   F   F   F
  0.1179713028464917  0.2022782112693804  0.4077573092863602   F   F   F
  0.6182918748645676  0.9540621315970910  0.4076585886272710   F   F   F
  0.8698060366177671  0.7026494074677814  0.4076892329318156   F   F   F
  0.3683618796855725  0.2017806766329713  0.4076547523318155   F   F   F
  0.3644913367028693  0.7067232313838261  0.4140131809181824   F   F   F
  0.6223637667191042  0.4488497076389635  0.4138453322727287   F   F   F
  0.1162767354067284  0.7039180324494723  0.4074486610409096   F   F   F
  0.6194922732423791  0.2006575782809819  0.4073887162136387   F   F   F
  0.3652491508407749  0.4494918184203627  0.4105041238999974   F   F   F
  0.6218095211068970  0.7061719812395850  0.4103115866636386   F   F   F
  0.4374810876826771  0.5245265449163270  0.4586801445954549   T   T   T
  0.5490885235063416  0.6328595361366496  0.4576753219545459   T   T   T
 
  0.00000000E+00  0.00000000E+00  0.00000000E+00
  0.00000000E+00  0.00000000E+00  0.00000000E+00
  0.00000000E+00  0.00000000E+00  0.00000000E+00
  0.00000000E+00  0.00000000E+00  0.00000000E+00
  0.00000000E+00  0.00000000E+00  0.00000000E+00
  0.00000000E+00  0.00000000E+00  0.00000000E+00
  0.00000000E+00  0.00000000E+00  0.00000000E+00
  0.00000000E+00  0.00000000E+00  0.00000000E+00
  0.00000000E+00  0.00000000E+00  0.00000000E+00
  0.00000000E+00  0.00000000E+00  0.00000000E+00
  0.00000000E+00  0.00000000E+00  0.00000000E+00
  0.00000000E+00  0.00000000E+00  0.00000000E+00
  0.00000000E+00  0.00000000E+00  0.00000000E+00
  0.00000000E+00  0.00000000E+00  0.00000000E+00
  0.00000000E+00  0.00000000E+00  0.00000000E+00
  0.00000000E+00  0.00000000E+00  0.00000000E+00
  0.00000000E+00  0.00000000E+00  0.00000000E+00
  0.00000000E+00  0.00000000E+00  0.00000000E+00
  0.00000000E+00  0.00000000E+00  0.00000000E+00
  0.00000000E+00  0.00000000E+00  0.00000000E+00
  0.00000000E+00  0.00000000E+00  0.00000000E+00
  0.00000000E+00  0.00000000E+00  0.00000000E+00
  0.00000000E+00  0.00000000E+00  0.00000000E+00
  0.00000000E+00  0.00000000E+00  0.00000000E+00
  0.00000000E+00  0.00000000E+00  0.00000000E+00
  0.00000000E+00  0.00000000E+00  0.00000000E+00
  0.00000000E+00  0.00000000E+00  0.00000000E+00
  0.00000000E+00  0.00000000E+00  0.00000000E+00
  0.00000000E+00  0.00000000E+00  0.00000000E+00
  0.00000000E+00  0.00000000E+00  0.00000000E+00
  0.00000000E+00  0.00000000E+00  0.00000000E+00
  0.00000000E+00  0.00000000E+00  0.00000000E+00
  0.00000000E+00  0.00000000E+00  0.00000000E+00
  0.00000000E+00  0.00000000E+00  0.00000000E+00
  0.00000000E+00  0.00000000E+00  0.00000000E+00
  0.00000000E+00  0.00000000E+00  0.00000000E+00
  0.00000000E+00  0.00000000E+00  0.00000000E+00
  0.00000000E+00  0.00000000E+00  0.00000000E+00
  0.00000000E+00  0.00000000E+00  0.00000000E+00
  0.00000000E+00  0.00000000E+00  0.00000000E+00
  0.00000000E+00  0.00000000E+00  0.00000000E+00
  0.00000000E+00  0.00000000E+00  0.00000000E+00
  0.00000000E+00  0.00000000E+00  0.00000000E+00
  0.00000000E+00  0.00000000E+00  0.00000000E+00
  0.00000000E+00  0.00000000E+00  0.00000000E+00
  0.00000000E+00  0.00000000E+00  0.00000000E+00
  0.00000000E+00  0.00000000E+00  0.00000000E+00
  0.00000000E+00  0.00000000E+00  0.00000000E+00
  0.00000000E+00  0.00000000E+00  0.00000000E+00
  0.00000000E+00  0.00000000E+00  0.00000000E+00
  0.00000000E+00  0.00000000E+00  0.00000000E+00
  0.00000000E+00  0.00000000E+00  0.00000000E+00
  0.00000000E+00  0.00000000E+00  0.00000000E+00
  0.00000000E+00  0.00000000E+00  0.00000000E+00
  0.00000000E+00  0.00000000E+00  0.00000000E+00
  0.00000000E+00  0.00000000E+00  0.00000000E+00
  0.00000000E+00  0.00000000E+00  0.00000000E+00
  0.00000000E+00  0.00000000E+00  0.00000000E+00
  0.00000000E+00  0.00000000E+00  0.00000000E+00
  0.00000000E+00  0.00000000E+00  0.00000000E+00
  0.00000000E+00  0.00000000E+00  0.00000000E+00
  0.00000000E+00  0.00000000E+00  0.00000000E+00
  0.00000000E+00  0.00000000E+00  0.00000000E+00
  0.00000000E+00  0.00000000E+00  0.00000000E+00
  0.00000000E+00  0.00000000E+00  0.00000000E+00
  0.00000000E+00  0.00000000E+00  0.00000000E+00
  0.00000000E+00  0.00000000E+00  0.00000000E+00
  0.00000000E+00  0.00000000E+00  0.00000000E+00
  0.00000000E+00  0.00000000E+00  0.00000000E+00
  0.00000000E+00  0.00000000E+00  0.00000000E+00
  0.00000000E+00  0.00000000E+00  0.00000000E+00
  0.00000000E+00  0.00000000E+00  0.00000000E+00
  0.00000000E+00  0.00000000E+00  0.00000000E+00
  0.00000000E+00  0.00000000E+00  0.00000000E+00
  0.00000000E+00  0.00000000E+00  0.00000000E+00
  0.00000000E+00  0.00000000E+00  0.00000000E+00
  0.00000000E+00  0.00000000E+00  0.00000000E+00
  0.00000000E+00  0.00000000E+00  0.00000000E+00
  0.00000000E+00  0.00000000E+00  0.00000000E+00
  0.00000000E+00  0.00000000E+00  0.00000000E+00
  0.00000000E+00  0.00000000E+00  0.00000000E+00
  0.00000000E+00  0.00000000E+00  0.00000000E+00
