10.86                                   
   1.00000000000000     
    10.8599996566999994    0.0000000000000000    0.0000000000000000
     5.4299998282999997    9.4050355878000005    0.0000000000000000
     0.0000000000000000    0.0000000000000000   22.0000000000000000
   Pt   Fe   Co   Cu   Ni
    32    13    10    13    12
Direct
  0.7848116422954519  0.8800786317968772  0.3151115080047191
  0.0425921801840445  0.8817583541797660  0.3126591697118357
  0.2787561923594453  0.3813386468780138  0.3170317278237604
  0.8739677630026534  0.9631363621159039  0.4179619892451498
  0.1192845005701813  0.4641601619713143  0.4220881854513650
  0.1247237966419235  0.9614708134165042  0.4169539013421328
  0.8743139411807235  0.4587320668548074  0.4215689866627770
  0.3735376899077707  0.9601043511774776  0.4167117342260624
  0.8732368562781403  0.2110458089428278  0.4159246321494336
  0.1255436787962836  0.2119423838651215  0.4179261403971211
  0.6239032399599864  0.9602791822058947  0.4189522897748148
  0.8734303251444402  0.7115043080242103  0.4216367183319392
  0.3743467867033630  0.2087487059878868  0.4195127136370829
  0.3756159273415278  0.7128506381149009  0.4189159996974610
  0.6255101922649615  0.4620822299133920  0.4180334773200372
  0.1231291556055609  0.7109344092928396  0.4211224206485369
  0.6242316307074631  0.2103534129179252  0.4172670837669727
  0.5473293852022181  0.3763300822650208  0.3153452144443847
  0.5331492580934096  0.1253688728530662  0.3128144786068461
  0.5483883292916545  0.1233734725312345  0.0461674633452063
  0.1189763218455440  0.4584087287110492  0.1298649037983779
  0.0447405570938599  0.1356549830214675  0.3126342037333103
  0.0406657298292927  0.1314986331423214  0.0367327973454792
  0.1309549378523442  0.9578912708627314  0.1339264883781865
  0.3736087766244793  0.4613053899138464  0.4207493818744013
  0.4556522333883635  0.5480667654325515  0.2186221383266584
  0.6218811531634216  0.7115480813630484  0.4194146239518730
  0.9546323180142906  0.7862445906964908  0.2204777234029365
  0.7954215236883257  0.6234246189784756  0.3177847363262103
  0.2901268599179758  0.6314959156259548  0.3162849455245862
  0.2002708624348628  0.2770478458572683  0.2260251504055475
  0.7045829241518575  0.5516321129954491  0.2208851499948423
  0.0403403285110073  0.6324971846591723  0.3226960029804999
  0.7955110030438703  0.8609512276387150  0.0480385122276843
  0.0573949397823981  0.8629365884375488  0.0426982104689131
  0.0458753864312555  0.6317424305994521  0.0425419417447301
  0.6283988685921429  0.2264175371307928  0.1318427956085557
  0.3823587953950849  0.9533284287239496  0.1319694655712382
  0.0348052182281791  0.3845172506370247  0.3222475822742012
  0.0268079723622492  0.3797381930330204  0.0416316377158523
  0.8723791053664129  0.2158092365480471  0.1307545436721540
  0.9547024218515858  0.5436382700218161  0.2244670324341485
  0.2977435020274939  0.1150942074694186  0.3197284608198174
  0.5406364201001423  0.6280687416357367  0.3203862949579346
  0.2945049926010910  0.1170356248423943  0.0441488403706600
  0.5519685040998681  0.6240663073846449  0.0467109319266470
  0.2960777314507510  0.3827352514912903  0.0441011896604735
  0.6249515703997091  0.9461887287680284  0.1346385474074339
  0.7073007629441506  0.7919560005841362  0.2206980387759003
  0.8641642368891169  0.7014903972803523  0.1310198486940521
  0.6284097325743332  0.4565427356930769  0.1288810116493195
  0.2968076541172167  0.8744509882971201  0.3174756829459540
  0.3034084821986767  0.8750332447789049  0.0436180695049799
  0.6263955126519605  0.7168699604049493  0.1294389879523266
  0.2282460863334350  0.0251927252995614  0.2279743672293790
  0.5411956631997583  0.3786938250565086  0.0386404366094624
  0.3758860748220485  0.2062408198137149  0.1355179188177900
  0.1391045929577572  0.7049881574788515  0.1351065841383274
  0.7043988531745029  0.0514063915852674  0.2204906319813205
  0.7926505977972624  0.1291568653928579  0.3152259548213152
  0.5385082469751055  0.8724320800761092  0.3161928211449307
  0.7963472328289498  0.1231574992082258  0.0392939661591711
  0.5440945193922815  0.8759385405971116  0.0392459096704059
  0.2079024299016083  0.5431036366127628  0.2237859261288122
  0.9489325326262090  0.3007508570331083  0.2224478204320945
  0.8725112496270739  0.9655798376333777  0.1316447751214298
  0.7171476949216640  0.2914481447393129  0.2245606244918221
  0.4567330680052706  0.2945848388480101  0.2213046886476420
  0.8750294207418108  0.4572868458843686  0.1300096086714149
  0.1269801392191425  0.2054284542975680  0.1306704091096975
  0.7957063935878281  0.6202328764949243  0.0430280211036589
  0.2938692617795198  0.6266274624955912  0.0463221184927605
  0.3850310216745214  0.7148852913221759  0.1298736746977411
  0.3816718202408609  0.4522385150745762  0.1290563122109845
  0.7922084870071089  0.3820410872613635  0.3192814048769677
  0.7947937720698874  0.3739039784493698  0.0430364376643269
  0.9546170343474287  0.0559472075309202  0.2217931839280496
  0.4595337134009227  0.7957272121714922  0.2251697936627224
  0.2181471024013462  0.7973202649200388  0.2249219835918908
  0.4610829538121521  0.0274880027576003  0.2232129655823627
 
  0.00000000E+00  0.00000000E+00  0.00000000E+00
  0.00000000E+00  0.00000000E+00  0.00000000E+00
  0.00000000E+00  0.00000000E+00  0.00000000E+00
  0.00000000E+00  0.00000000E+00  0.00000000E+00
  0.00000000E+00  0.00000000E+00  0.00000000E+00
  0.00000000E+00  0.00000000E+00  0.00000000E+00
  0.00000000E+00  0.00000000E+00  0.00000000E+00
  0.00000000E+00  0.00000000E+00  0.00000000E+00
  0.00000000E+00  0.00000000E+00  0.00000000E+00
  0.00000000E+00  0.00000000E+00  0.00000000E+00
  0.00000000E+00  0.00000000E+00  0.00000000E+00
  0.00000000E+00  0.00000000E+00  0.00000000E+00
  0.00000000E+00  0.00000000E+00  0.00000000E+00
  0.00000000E+00  0.00000000E+00  0.00000000E+00
  0.00000000E+00  0.00000000E+00  0.00000000E+00
  0.00000000E+00  0.00000000E+00  0.00000000E+00
  0.00000000E+00  0.00000000E+00  0.00000000E+00
  0.00000000E+00  0.00000000E+00  0.00000000E+00
  0.00000000E+00  0.00000000E+00  0.00000000E+00
  0.00000000E+00  0.00000000E+00  0.00000000E+00
  0.00000000E+00  0.00000000E+00  0.00000000E+00
  0.00000000E+00  0.00000000E+00  0.00000000E+00
  0.00000000E+00  0.00000000E+00  0.00000000E+00
  0.00000000E+00  0.00000000E+00  0.00000000E+00
  0.00000000E+00  0.00000000E+00  0.00000000E+00
  0.00000000E+00  0.00000000E+00  0.00000000E+00
  0.00000000E+00  0.00000000E+00  0.00000000E+00
  0.00000000E+00  0.00000000E+00  0.00000000E+00
  0.00000000E+00  0.00000000E+00  0.00000000E+00
  0.00000000E+00  0.00000000E+00  0.00000000E+00
  0.00000000E+00  0.00000000E+00  0.00000000E+00
  0.00000000E+00  0.00000000E+00  0.00000000E+00
  0.00000000E+00  0.00000000E+00  0.00000000E+00
  0.00000000E+00  0.00000000E+00  0.00000000E+00
  0.00000000E+00  0.00000000E+00  0.00000000E+00
  0.00000000E+00  0.00000000E+00  0.00000000E+00
  0.00000000E+00  0.00000000E+00  0.00000000E+00
  0.00000000E+00  0.00000000E+00  0.00000000E+00
  0.00000000E+00  0.00000000E+00  0.00000000E+00
  0.00000000E+00  0.00000000E+00  0.00000000E+00
  0.00000000E+00  0.00000000E+00  0.00000000E+00
  0.00000000E+00  0.00000000E+00  0.00000000E+00
  0.00000000E+00  0.00000000E+00  0.00000000E+00
  0.00000000E+00  0.00000000E+00  0.00000000E+00
  0.00000000E+00  0.00000000E+00  0.00000000E+00
  0.00000000E+00  0.00000000E+00  0.00000000E+00
  0.00000000E+00  0.00000000E+00  0.00000000E+00
  0.00000000E+00  0.00000000E+00  0.00000000E+00
  0.00000000E+00  0.00000000E+00  0.00000000E+00
  0.00000000E+00  0.00000000E+00  0.00000000E+00
  0.00000000E+00  0.00000000E+00  0.00000000E+00
  0.00000000E+00  0.00000000E+00  0.00000000E+00
  0.00000000E+00  0.00000000E+00  0.00000000E+00
  0.00000000E+00  0.00000000E+00  0.00000000E+00
  0.00000000E+00  0.00000000E+00  0.00000000E+00
  0.00000000E+00  0.00000000E+00  0.00000000E+00
  0.00000000E+00  0.00000000E+00  0.00000000E+00
  0.00000000E+00  0.00000000E+00  0.00000000E+00
  0.00000000E+00  0.00000000E+00  0.00000000E+00
  0.00000000E+00  0.00000000E+00  0.00000000E+00
  0.00000000E+00  0.00000000E+00  0.00000000E+00
  0.00000000E+00  0.00000000E+00  0.00000000E+00
  0.00000000E+00  0.00000000E+00  0.00000000E+00
  0.00000000E+00  0.00000000E+00  0.00000000E+00
  0.00000000E+00  0.00000000E+00  0.00000000E+00
  0.00000000E+00  0.00000000E+00  0.00000000E+00
  0.00000000E+00  0.00000000E+00  0.00000000E+00
  0.00000000E+00  0.00000000E+00  0.00000000E+00
  0.00000000E+00  0.00000000E+00  0.00000000E+00
  0.00000000E+00  0.00000000E+00  0.00000000E+00
  0.00000000E+00  0.00000000E+00  0.00000000E+00
  0.00000000E+00  0.00000000E+00  0.00000000E+00
  0.00000000E+00  0.00000000E+00  0.00000000E+00
  0.00000000E+00  0.00000000E+00  0.00000000E+00
  0.00000000E+00  0.00000000E+00  0.00000000E+00
  0.00000000E+00  0.00000000E+00  0.00000000E+00
  0.00000000E+00  0.00000000E+00  0.00000000E+00
  0.00000000E+00  0.00000000E+00  0.00000000E+00
  0.00000000E+00  0.00000000E+00  0.00000000E+00
  0.00000000E+00  0.00000000E+00  0.00000000E+00
