Pt   H                                  
   1.00000000000000     
    11.2227001190000006    0.0000000000000000    0.0000000000000000
     5.6113500595000003    9.7191434021000003    0.0000000000000000
     0.0000000000000000    0.0000000000000000   22.0000000000000000
   Pt   H 
    80    17
Direct
  0.7856810558177304  0.8694555107600145  0.3263527616527714
  0.0356093784715029  0.8692759708260830  0.3266176237913240
  0.0362244851652579  0.6189784248207209  0.3264475802946871
  0.7850448587159847  0.8687678770406433  0.0217734372335298
  0.0352986087615132  0.8686661135225260  0.0215735141666358
  0.0354114856466531  0.6184224577843948  0.0215798778091246
  0.6186794887148440  0.2019546409704270  0.1249365303619829
  0.3682519643262393  0.9519974992431559  0.1249974166803262
  0.0358838444224252  0.3685748983210826  0.3261193024981040
  0.0351083856405119  0.3687049407171886  0.0214273801773592
  0.8685124426604767  0.2019945817814272  0.1250729479993541
  0.9521650202903751  0.5352387240446153  0.2249501951159188
  0.2849251553259143  0.1196202395794568  0.3261170788732312
  0.5354726361486783  0.6190328606613119  0.3272656201490209
  0.2862312992271111  0.3699351326021014  0.3266052380247826
  0.2852081444457811  0.1185183401368351  0.0215226232850393
  0.5351577908680317  0.6185237785883105  0.0215853932384117
  0.2851298622510585  0.3686326944950663  0.0213936271630730
  0.6184410216626872  0.9520288422338606  0.1249566063061071
  0.7019101802200887  0.7854177065230757  0.2250364393757864
  0.8685119089830389  0.7019962793919770  0.1249469541640723
  0.6184612967543374  0.4520675674886122  0.1250795151267893
  0.2863336963636208  0.8673243973345197  0.3273754231074331
  0.2850852387115030  0.8685650581491596  0.0216422358803523
  0.6184352915708909  0.7019978400550455  0.1250210083696697
  0.2017590728512131  0.0352941397427749  0.2253229988024396
  0.8694591751265059  0.9533018613442505  0.4324750040463468
  0.1201003352361134  0.4528977199400618  0.4319764132714759
  0.1196202229025416  0.9524890966480861  0.4328206580981748
  0.8712116019281821  0.4528197030132623  0.4321439896228712
  0.3688849155911335  0.9549469763537840  0.4321496223234158
  0.8685706702810304  0.2035512527119196  0.4328067273646778
  0.1191000595131844  0.2028938944298778  0.4322009113284868
  0.6196094427709635  0.9546493380503976  0.4320872138688165
  0.8707433873517896  0.7034094824529699  0.4321860671153103
  0.3691535881019538  0.2036979538256051  0.4319716073854403
  0.3727719932491034  0.7033423813878936  0.4365379037936699
  0.6194591996382771  0.4573602025143506  0.4373661617425145
  0.1202123052844130  0.7033504247945501  0.4326599944549653
  0.6194783509034281  0.2043002508291050  0.4328008902525497
  0.5363187943153404  0.3696912220205761  0.3270770385481116
  0.5351027042659420  0.3688183727934528  0.0215823583707127
  0.5353881127065315  0.1199880222911544  0.3264472884750226
  0.5349800481313661  0.1188667144825368  0.0215389513230113
  0.8686162588288514  0.4516743755078451  0.1250314789981584
  0.1184165583266123  0.4520273865051260  0.1246888600086595
  0.0351477713996941  0.1189515764375826  0.3268553616297638
  0.0349380158445945  0.1184138492453489  0.0214488940949849
  0.1184447504024464  0.9520388859521943  0.1250376144315872
  0.3714570330734455  0.4552801299059396  0.4326334279735252
  0.4519443719331651  0.5355883674755079  0.2254255745309854
  0.6216560410149929  0.7059275509895979  0.4310133827793086
  0.3686054229389036  0.2019692567630409  0.1246528209212413
  0.1180921508200581  0.2016171795993547  0.1245168699227668
  0.9519954835291498  0.7853222996847292  0.2251016745595327
  0.7864273704511797  0.6188110964210187  0.3262309674092992
  0.2858304235831830  0.6198365153679739  0.3269221700556363
  0.7851498657210463  0.6184326894802975  0.0218232264981196
  0.2853473563990208  0.6185628942647942  0.0216666553478576
  0.3685408831600221  0.7020006591440140  0.1250532984973980
  0.3685091882169256  0.4519785184756510  0.1248863083119800
  0.2017455723565298  0.2852534166002001  0.2243642787759731
  0.7833418465338445  0.3702641949393171  0.3276226013769990
  0.7850896455626123  0.3685719458888053  0.0216769386352905
  0.9517720125850643  0.0354634630498547  0.2252440263883960
  0.4518266295084331  0.7854541507470743  0.2252739776223930
  0.7019712040554617  0.5353445922885944  0.2253511579787130
  0.2020238363780129  0.7855037233400939  0.2252115331268896
  0.4516409345463435  0.0358252857017644  0.2249192268594765
  0.1183135489043544  0.7022870369335346  0.1249132541829076
  0.7017626337788609  0.0356675763282782  0.2250880107298933
  0.7854370735389419  0.1194226379080301  0.3266682022412414
  0.5350237318667244  0.8702056252618562  0.3261476644650221
  0.7851483042173196  0.1188323669498278  0.0216552695352170
  0.5349354583912536  0.8687055157318563  0.0217058644983705
  0.2021841141317675  0.5352938019146962  0.2250434679632335
  0.9517328968686543  0.2853068371943301  0.2253448232328525
  0.8685892668419856  0.9520559244230635  0.1249875322225018
  0.7019353622419531  0.2857285038138140  0.2253059615518687
  0.4516964915440709  0.2858304022593631  0.2250877018912776
  0.4205897935280073  0.5069038752488865  0.4898706336366858
  0.5103963735492384  0.5843455425163381  0.4874125855714783
  0.7172926391618063  0.5329216774908294  0.4742978186639764
  0.2006506657261900  0.7875934844468770  0.4744987238161599
  0.4499591890782486  0.7991197695842055  0.4738206650118364
  0.7038441121519278  0.7877308019668821  0.4729611103502070
  0.9530261856613881  0.7861454146617206  0.4734058483887094
  0.2018383955445020  0.5354078937729396  0.4725434331028313
  0.9536785757342345  0.5364924383619595  0.4731486190793068
  0.2023257990980721  0.2860508613251672  0.4729991439696183
  0.4516337253650119  0.2855420444410622  0.4725398259976789
  0.7042084493449134  0.2836897171103765  0.4747542138754309
  0.9527017374408927  0.2857895269907971  0.4733317001251627
  0.2020738756090787  0.0363137703022799  0.4733801091805129
  0.4529378284961861  0.0372066818901701  0.4731144543458778
  0.7024501839385107  0.0368483691734097  0.4733741508620427
  0.9523484280334050  0.0360397237545893  0.4735455036734211
 
  0.00000000E+00  0.00000000E+00  0.00000000E+00
  0.00000000E+00  0.00000000E+00  0.00000000E+00
  0.00000000E+00  0.00000000E+00  0.00000000E+00
  0.00000000E+00  0.00000000E+00  0.00000000E+00
  0.00000000E+00  0.00000000E+00  0.00000000E+00
  0.00000000E+00  0.00000000E+00  0.00000000E+00
  0.00000000E+00  0.00000000E+00  0.00000000E+00
  0.00000000E+00  0.00000000E+00  0.00000000E+00
  0.00000000E+00  0.00000000E+00  0.00000000E+00
  0.00000000E+00  0.00000000E+00  0.00000000E+00
  0.00000000E+00  0.00000000E+00  0.00000000E+00
  0.00000000E+00  0.00000000E+00  0.00000000E+00
  0.00000000E+00  0.00000000E+00  0.00000000E+00
  0.00000000E+00  0.00000000E+00  0.00000000E+00
  0.00000000E+00  0.00000000E+00  0.00000000E+00
  0.00000000E+00  0.00000000E+00  0.00000000E+00
  0.00000000E+00  0.00000000E+00  0.00000000E+00
  0.00000000E+00  0.00000000E+00  0.00000000E+00
  0.00000000E+00  0.00000000E+00  0.00000000E+00
  0.00000000E+00  0.00000000E+00  0.00000000E+00
  0.00000000E+00  0.00000000E+00  0.00000000E+00
  0.00000000E+00  0.00000000E+00  0.00000000E+00
  0.00000000E+00  0.00000000E+00  0.00000000E+00
  0.00000000E+00  0.00000000E+00  0.00000000E+00
  0.00000000E+00  0.00000000E+00  0.00000000E+00
  0.00000000E+00  0.00000000E+00  0.00000000E+00
  0.00000000E+00  0.00000000E+00  0.00000000E+00
  0.00000000E+00  0.00000000E+00  0.00000000E+00
  0.00000000E+00  0.00000000E+00  0.00000000E+00
  0.00000000E+00  0.00000000E+00  0.00000000E+00
  0.00000000E+00  0.00000000E+00  0.00000000E+00
  0.00000000E+00  0.00000000E+00  0.00000000E+00
  0.00000000E+00  0.00000000E+00  0.00000000E+00
  0.00000000E+00  0.00000000E+00  0.00000000E+00
  0.00000000E+00  0.00000000E+00  0.00000000E+00
  0.00000000E+00  0.00000000E+00  0.00000000E+00
  0.00000000E+00  0.00000000E+00  0.00000000E+00
  0.00000000E+00  0.00000000E+00  0.00000000E+00
  0.00000000E+00  0.00000000E+00  0.00000000E+00
  0.00000000E+00  0.00000000E+00  0.00000000E+00
  0.00000000E+00  0.00000000E+00  0.00000000E+00
  0.00000000E+00  0.00000000E+00  0.00000000E+00
  0.00000000E+00  0.00000000E+00  0.00000000E+00
  0.00000000E+00  0.00000000E+00  0.00000000E+00
  0.00000000E+00  0.00000000E+00  0.00000000E+00
  0.00000000E+00  0.00000000E+00  0.00000000E+00
  0.00000000E+00  0.00000000E+00  0.00000000E+00
  0.00000000E+00  0.00000000E+00  0.00000000E+00
  0.00000000E+00  0.00000000E+00  0.00000000E+00
  0.00000000E+00  0.00000000E+00  0.00000000E+00
  0.00000000E+00  0.00000000E+00  0.00000000E+00
  0.00000000E+00  0.00000000E+00  0.00000000E+00
  0.00000000E+00  0.00000000E+00  0.00000000E+00
  0.00000000E+00  0.00000000E+00  0.00000000E+00
  0.00000000E+00  0.00000000E+00  0.00000000E+00
  0.00000000E+00  0.00000000E+00  0.00000000E+00
  0.00000000E+00  0.00000000E+00  0.00000000E+00
  0.00000000E+00  0.00000000E+00  0.00000000E+00
  0.00000000E+00  0.00000000E+00  0.00000000E+00
  0.00000000E+00  0.00000000E+00  0.00000000E+00
  0.00000000E+00  0.00000000E+00  0.00000000E+00
  0.00000000E+00  0.00000000E+00  0.00000000E+00
  0.00000000E+00  0.00000000E+00  0.00000000E+00
  0.00000000E+00  0.00000000E+00  0.00000000E+00
  0.00000000E+00  0.00000000E+00  0.00000000E+00
  0.00000000E+00  0.00000000E+00  0.00000000E+00
  0.00000000E+00  0.00000000E+00  0.00000000E+00
  0.00000000E+00  0.00000000E+00  0.00000000E+00
  0.00000000E+00  0.00000000E+00  0.00000000E+00
  0.00000000E+00  0.00000000E+00  0.00000000E+00
  0.00000000E+00  0.00000000E+00  0.00000000E+00
  0.00000000E+00  0.00000000E+00  0.00000000E+00
  0.00000000E+00  0.00000000E+00  0.00000000E+00
  0.00000000E+00  0.00000000E+00  0.00000000E+00
  0.00000000E+00  0.00000000E+00  0.00000000E+00
  0.00000000E+00  0.00000000E+00  0.00000000E+00
  0.00000000E+00  0.00000000E+00  0.00000000E+00
  0.00000000E+00  0.00000000E+00  0.00000000E+00
  0.00000000E+00  0.00000000E+00  0.00000000E+00
  0.00000000E+00  0.00000000E+00  0.00000000E+00
  0.00000000E+00  0.00000000E+00  0.00000000E+00
  0.00000000E+00  0.00000000E+00  0.00000000E+00
  0.00000000E+00  0.00000000E+00  0.00000000E+00
  0.00000000E+00  0.00000000E+00  0.00000000E+00
  0.00000000E+00  0.00000000E+00  0.00000000E+00
  0.00000000E+00  0.00000000E+00  0.00000000E+00
  0.00000000E+00  0.00000000E+00  0.00000000E+00
  0.00000000E+00  0.00000000E+00  0.00000000E+00
  0.00000000E+00  0.00000000E+00  0.00000000E+00
  0.00000000E+00  0.00000000E+00  0.00000000E+00
  0.00000000E+00  0.00000000E+00  0.00000000E+00
  0.00000000E+00  0.00000000E+00  0.00000000E+00
  0.00000000E+00  0.00000000E+00  0.00000000E+00
  0.00000000E+00  0.00000000E+00  0.00000000E+00
  0.00000000E+00  0.00000000E+00  0.00000000E+00
  0.00000000E+00  0.00000000E+00  0.00000000E+00
  0.00000000E+00  0.00000000E+00  0.00000000E+00
