11.16                                   
   1.00000000000000     
    11.1599998474000000    0.0000000000000000    0.0000000000000000
     5.5799999237000000    9.6648433741000002    0.0000000000000000
     0.0000000000000000    0.0000000000000000   22.0000000000000000
   Pt   Fe   Co   Cu   Ni   H 
    32    13    10    13    12     1
Selective dynamics
Direct
  0.7839164854044733  0.8814225035233704  0.3071558131296145   T   T   T
  0.0379406421668516  0.8799155726010769  0.3020217241796225   T   T   T
  0.2775724742373254  0.3745009967661323  0.3140077298764285   T   T   T
  0.8763738437409485  0.9630163244175873  0.4080936337326633   T   T   T
  0.1126706608092428  0.4686993960986992  0.4147258140252769   T   T   T
  0.1236635055339840  0.9574372141067092  0.4083643690329157   T   T   T
  0.8733119450120491  0.4570795498896437  0.4167587975958610   T   T   T
  0.3705305247628280  0.9582058270465481  0.4133778262115316   T   T   T
  0.8707723135259589  0.2119374662769295  0.4088558860687892   T   T   T
  0.1246448626242484  0.2129026823097020  0.4129370713713950   T   T   T
  0.6259290017329979  0.9549921269022099  0.4135528368002973   T   T   T
  0.8713365238019039  0.7137981991572533  0.4143338816913514   T   T   T
  0.3684718189714561  0.2105911590742902  0.4167349602664643   T   T   T
  0.3743721538689971  0.7103577674884426  0.4119057943201141   T   T   T
  0.6244685046458555  0.4619546657594128  0.4144738513406458   T   T   T
  0.1177625142190026  0.7126289263459923  0.4125094760982858   T   T   T
  0.6274626860383323  0.2097564399172755  0.4137870771398657   T   T   T
  0.5418957816008210  0.3781622849503365  0.3141627983802249   T   T   T
  0.5307656999308793  0.1262786496448652  0.3114499043304879   T   T   T
  0.5479360330018892  0.1255909399993769  0.0556212010000010   F   F   F
  0.1050472610022197  0.4365478169989387  0.1244170880000013   F   F   F
  0.0485989000317078  0.1332033716130990  0.3103814631140480   T   T   T
  0.0252908159984528  0.1249324719980223  0.0404736890000024   F   F   F
  0.1302648480056590  0.9552854379970483  0.1381767990000000   F   F   F
  0.3672276554988126  0.4643529841302805  0.4141586957154441   T   T   T
  0.4550904889956513  0.5565127150030875  0.2215455449999979   F   F   F
  0.6198797645308812  0.7111013573414493  0.4144201918833037   T   T   T
  0.9509405679971650  0.7708154409997050  0.2115423250000035   F   F   F
  0.7967315162697092  0.6243431995220602  0.3158396650856751   T   T   T
  0.2787201816656888  0.6289082171170397  0.3115491232571334   T   T   T
  0.1908233009982538  0.2723671880037202  0.2256696439999999   F   F   F
  0.6991999430008917  0.5561380480002356  0.2216657290000015   F   F   F
  0.0362093740861071  0.6340325606399942  0.3155717619878936   T   T   T
  0.7946764739981020  0.8597211840045702  0.0603210109999992   F   F   F
  0.0472277110004455  0.8608318650042008  0.0526243289999968   F   F   F
  0.0485999499998186  0.6467734080048757  0.0614832309999969   F   F   F
  0.6256235380037083  0.2386853370000779  0.1339005230000012   F   F   F
  0.3812980910045098  0.9505843839973807  0.1357545959999982   F   F   F
  0.0314399394479397  0.3843689362872388  0.3201016012277518   T   T   T
  0.9912695609975515  0.3684184990045480  0.0440217040000022   F   F   F
  0.8635013100046720  0.2184212299970767  0.1330608560000002   F   F   F
  0.9518373099983606  0.5353226950024705  0.2223101310000004   F   F   F
  0.2999413706487385  0.1139816421736657  0.3191250921941272   T   T   T
  0.5416170031032788  0.6250177302149481  0.3200399057931704   T   T   T
  0.2807374070033362  0.1057206180017545  0.0521704009999979   F   F   F
  0.5389871579988039  0.6297256979983672  0.0482680530000010   F   F   F
  0.2984369150014814  0.4021714700019103  0.0563919000000013   F   F   F
  0.6229950689996713  0.9410554790027277  0.1384750280000020   F   F   F
  0.7030949789992391  0.7872524540014609  0.2202327469999972   F   F   F
  0.8492780659956765  0.6806581090004045  0.1312540879999986   F   F   F
  0.6167672719963306  0.4701632850023429  0.1300353250000015   F   F   F
  0.2982033056082822  0.8772218431176035  0.3175648435653409   T   T   T
  0.3010432329997101  0.8779877230023061  0.0477690259999974   F   F   F
  0.6085638729960010  0.7220527840007378  0.1306725419999992   F   F   F
  0.2344297509992543  0.0211869069962134  0.2284564759999981   F   F   F
  0.5345829480016135  0.3861113929999433  0.0411396889999978   F   F   F
  0.3654986089970507  0.2055446419984008  0.1382749189999970   F   F   F
  0.1632348660030445  0.7032863599957651  0.1453273950000025   F   F   F
  0.6943087199969469  0.0635364790024013  0.2192384980000028   F   F   F
  0.7872124552705139  0.1315551634938952  0.3116284234434456   T   T   T
  0.5406315775588464  0.8725217310145577  0.3163024087581801   T   T   T
  0.7846798790017004  0.1256469870018009  0.0427919030000012   F   F   F
  0.5372086529994675  0.8832323749990323  0.0436522959999976   F   F   F
  0.2017743049958654  0.5253248889998474  0.2194479380000018   F   F   F
  0.9396576839989592  0.3052585559954508  0.2247454689999984   F   F   F
  0.8650139610018002  0.9809937170019438  0.1369568650000019   F   F   F
  0.7110290679977993  0.3025694279988613  0.2258082520000002   F   F   F
  0.4534265499967844  0.2969096760005385  0.2215668939999986   F   F   F
  0.8590857100010396  0.4481114409992486  0.1318170369999976   F   F   F
  0.1134855920053752  0.1976785879965632  0.1337839910000014   F   F   F
  0.7711452319973731  0.6097180460049358  0.0462050280000028   F   F   F
  0.2956336770026624  0.6272833540010225  0.0522508780000024   F   F   F
  0.3842174690008733  0.7187581390005562  0.1329304850000028   F   F   F
  0.3925397009957408  0.4550135800011859  0.1351707090000005   F   F   F
  0.7858594874810922  0.3890256441411414  0.3185261835377597   T   T   T
  0.7750661889946855  0.3681197870039270  0.0452688499999994   F   F   F
  0.9449614759988236  0.0723766599958111  0.2217785010000028   F   F   F
  0.4633447139960225  0.7962897130049598  0.2274368460000034   F   F   F
  0.2354054279977760  0.7988368000033859  0.2276622600000024   F   F   F
  0.4587377860000856  0.0246024700035150  0.2248121169999990   F   F   F
  0.5404963499028658  0.1242640468861670  0.4529492194692999   T   T   T
 
  0.00000000E+00  0.00000000E+00  0.00000000E+00
  0.00000000E+00  0.00000000E+00  0.00000000E+00
  0.00000000E+00  0.00000000E+00  0.00000000E+00
  0.00000000E+00  0.00000000E+00  0.00000000E+00
  0.00000000E+00  0.00000000E+00  0.00000000E+00
  0.00000000E+00  0.00000000E+00  0.00000000E+00
  0.00000000E+00  0.00000000E+00  0.00000000E+00
  0.00000000E+00  0.00000000E+00  0.00000000E+00
  0.00000000E+00  0.00000000E+00  0.00000000E+00
  0.00000000E+00  0.00000000E+00  0.00000000E+00
  0.00000000E+00  0.00000000E+00  0.00000000E+00
  0.00000000E+00  0.00000000E+00  0.00000000E+00
  0.00000000E+00  0.00000000E+00  0.00000000E+00
  0.00000000E+00  0.00000000E+00  0.00000000E+00
  0.00000000E+00  0.00000000E+00  0.00000000E+00
  0.00000000E+00  0.00000000E+00  0.00000000E+00
  0.00000000E+00  0.00000000E+00  0.00000000E+00
  0.00000000E+00  0.00000000E+00  0.00000000E+00
  0.00000000E+00  0.00000000E+00  0.00000000E+00
  0.00000000E+00  0.00000000E+00  0.00000000E+00
  0.00000000E+00  0.00000000E+00  0.00000000E+00
  0.00000000E+00  0.00000000E+00  0.00000000E+00
  0.00000000E+00  0.00000000E+00  0.00000000E+00
  0.00000000E+00  0.00000000E+00  0.00000000E+00
  0.00000000E+00  0.00000000E+00  0.00000000E+00
  0.00000000E+00  0.00000000E+00  0.00000000E+00
  0.00000000E+00  0.00000000E+00  0.00000000E+00
  0.00000000E+00  0.00000000E+00  0.00000000E+00
  0.00000000E+00  0.00000000E+00  0.00000000E+00
  0.00000000E+00  0.00000000E+00  0.00000000E+00
  0.00000000E+00  0.00000000E+00  0.00000000E+00
  0.00000000E+00  0.00000000E+00  0.00000000E+00
  0.00000000E+00  0.00000000E+00  0.00000000E+00
  0.00000000E+00  0.00000000E+00  0.00000000E+00
  0.00000000E+00  0.00000000E+00  0.00000000E+00
  0.00000000E+00  0.00000000E+00  0.00000000E+00
  0.00000000E+00  0.00000000E+00  0.00000000E+00
  0.00000000E+00  0.00000000E+00  0.00000000E+00
  0.00000000E+00  0.00000000E+00  0.00000000E+00
  0.00000000E+00  0.00000000E+00  0.00000000E+00
  0.00000000E+00  0.00000000E+00  0.00000000E+00
  0.00000000E+00  0.00000000E+00  0.00000000E+00
  0.00000000E+00  0.00000000E+00  0.00000000E+00
  0.00000000E+00  0.00000000E+00  0.00000000E+00
  0.00000000E+00  0.00000000E+00  0.00000000E+00
  0.00000000E+00  0.00000000E+00  0.00000000E+00
  0.00000000E+00  0.00000000E+00  0.00000000E+00
  0.00000000E+00  0.00000000E+00  0.00000000E+00
  0.00000000E+00  0.00000000E+00  0.00000000E+00
  0.00000000E+00  0.00000000E+00  0.00000000E+00
  0.00000000E+00  0.00000000E+00  0.00000000E+00
  0.00000000E+00  0.00000000E+00  0.00000000E+00
  0.00000000E+00  0.00000000E+00  0.00000000E+00
  0.00000000E+00  0.00000000E+00  0.00000000E+00
  0.00000000E+00  0.00000000E+00  0.00000000E+00
  0.00000000E+00  0.00000000E+00  0.00000000E+00
  0.00000000E+00  0.00000000E+00  0.00000000E+00
  0.00000000E+00  0.00000000E+00  0.00000000E+00
  0.00000000E+00  0.00000000E+00  0.00000000E+00
  0.00000000E+00  0.00000000E+00  0.00000000E+00
  0.00000000E+00  0.00000000E+00  0.00000000E+00
  0.00000000E+00  0.00000000E+00  0.00000000E+00
  0.00000000E+00  0.00000000E+00  0.00000000E+00
  0.00000000E+00  0.00000000E+00  0.00000000E+00
  0.00000000E+00  0.00000000E+00  0.00000000E+00
  0.00000000E+00  0.00000000E+00  0.00000000E+00
  0.00000000E+00  0.00000000E+00  0.00000000E+00
  0.00000000E+00  0.00000000E+00  0.00000000E+00
  0.00000000E+00  0.00000000E+00  0.00000000E+00
  0.00000000E+00  0.00000000E+00  0.00000000E+00
  0.00000000E+00  0.00000000E+00  0.00000000E+00
  0.00000000E+00  0.00000000E+00  0.00000000E+00
  0.00000000E+00  0.00000000E+00  0.00000000E+00
  0.00000000E+00  0.00000000E+00  0.00000000E+00
  0.00000000E+00  0.00000000E+00  0.00000000E+00
  0.00000000E+00  0.00000000E+00  0.00000000E+00
  0.00000000E+00  0.00000000E+00  0.00000000E+00
  0.00000000E+00  0.00000000E+00  0.00000000E+00
  0.00000000E+00  0.00000000E+00  0.00000000E+00
  0.00000000E+00  0.00000000E+00  0.00000000E+00
  0.00000000E+00  0.00000000E+00  0.00000000E+00
