10.46                                   
   1.00000000000000     
    10.4600000381000005    0.0000000000000000    0.0000000000000000
     5.2300000191000002    9.0586257565999997    0.0000000000000000
     0.0000000000000000    0.0000000000000000   22.0000000000000000
   Pt   Fe   Co   Cu   Ni
    32    13    10    13    12
Direct
  0.7872186361537242  0.8789608627211635  0.3184661629205211
  0.0419384017907010  0.8832909839653729  0.3168189444812241
  0.2789665064244224  0.3809183802801893  0.3208142442475757
  0.8737720345190143  0.9618448322627261  0.4272341136447093
  0.1219312601182486  0.4622944661241733  0.4304019837977451
  0.1237889670665070  0.9615839252885294  0.4234486531632663
  0.8735352932296943  0.4605730461814834  0.4290379290893995
  0.3742632657828944  0.9602347853665115  0.4219319191182002
  0.8736298050717342  0.2113889157085472  0.4220177249546501
  0.1246768653419908  0.2111060474226681  0.4240012271488072
  0.6241805258378662  0.9609373341589933  0.4258869065865171
  0.8734936471752462  0.7109910012243874  0.4287176347616627
  0.3740407661925457  0.2096941716802696  0.4272044023002066
  0.3747221532704782  0.7122392511492220  0.4262537747019867
  0.6247749612836536  0.4614904532952402  0.4243515833233199
  0.1238063108484113  0.7111580758527842  0.4286289506509333
  0.6244413205454696  0.2108621787385842  0.4233347634521766
  0.5477135741603666  0.3762580136739504  0.3177846046375327
  0.5342784535889791  0.1248738526227857  0.3156956044923579
  0.5463555366677949  0.1234644042325885  0.0380197407814380
  0.1212406355833023  0.4603947908320870  0.1271502081712143
  0.0426193655275225  0.1374358248756410  0.3143664084122856
  0.0428389108532140  0.1298145715247712  0.0317328682489982
  0.1301938677377302  0.9582784145599906  0.1312468517268197
  0.3739566341517640  0.4616251366392548  0.4293266487896783
  0.4540328858834037  0.5454509107459720  0.2187083565726666
  0.6224938581997854  0.7114939283415529  0.4256294176065991
  0.9563613465416928  0.7904679019023484  0.2212711332432000
  0.7933642634541105  0.6224358816496752  0.3194747131321121
  0.2916468809200414  0.6317008455741332  0.3192476670449484
  0.2029926352724286  0.2819160129472008  0.2253742575910797
  0.7072898954020387  0.5486203295557872  0.2205217376912126
  0.0401979169284277  0.6307657805342874  0.3268295766589960
  0.7977582256005998  0.8618987641761352  0.0403945815479017
  0.0556446370177509  0.8665462419261097  0.0360495583160334
  0.0467868659107031  0.6273110610675657  0.0349611333993059
  0.6268079290780394  0.2205144568038569  0.1279874704265356
  0.3824299677898386  0.9550771594331869  0.1293430731155749
  0.0351370698652277  0.3838707578905666  0.3256311507787165
  0.0322869523527078  0.3824189837586173  0.0357072738646250
  0.8718083387394551  0.2155041916657568  0.1275053200966585
  0.9551923697405086  0.5450551850550841  0.2237018674985315
  0.2958132809466760  0.1164497081393993  0.3220967237678529
  0.5397236535087272  0.6311358892129784  0.3229687786041009
  0.2950173596015770  0.1200886714844391  0.0375064116581091
  0.5475598048883845  0.6253949978176131  0.0421816458273723
  0.2945030729907465  0.3799106327169255  0.0369388269675485
  0.6254732335706243  0.9512088976075826  0.1314671777610584
  0.7062955093186445  0.7947981595540251  0.2196547961767519
  0.8663903657636814  0.7066093915346171  0.1280570884568664
  0.6260467991858790  0.4606603453772846  0.1263164780092293
  0.2979004654319214  0.8762452693893767  0.3179618312905533
  0.3052443792954891  0.8677867716341913  0.0391308983727908
  0.6272703420168855  0.7138141950530653  0.1276925297301106
  0.2234256011560466  0.0289588899696733  0.2271318947630034
  0.5432742053995928  0.3804519971167726  0.0330732290089786
  0.3785909415048234  0.2051562216603307  0.1314700547823604
  0.1350161306799354  0.7053169766076833  0.1306768704284187
  0.7050897259640418  0.0499878032776113  0.2204400288870702
  0.7924748057325534  0.1301652202301111  0.3175790391614839
  0.5377275890690699  0.8735803385809414  0.3171559807940582
  0.7961297016611184  0.1231870354589446  0.0328180932670059
  0.5460691330515955  0.8700680657862844  0.0347715803142447
  0.2070546213844708  0.5423754641345609  0.2243282066682505
  0.9518391764872447  0.2957259705602720  0.2207862691746509
  0.8717417800828829  0.9631728889816400  0.1282003082867455
  0.7139194298417112  0.2891101091149398  0.2228863708699154
  0.4574638451741130  0.2907874154091191  0.2206832389849467
  0.8752232243211326  0.4564829535902361  0.1268246701372178
  0.1275845306882294  0.2075320190978783  0.1280611435149299
  0.7923383526134196  0.6224713498462277  0.0390182938154077
  0.2981210247481920  0.6250642790019677  0.0405325909595727
  0.3856345194580726  0.7104295515015490  0.1282660679017365
  0.3824089299392576  0.4515722852921134  0.1254473441382028
  0.7925380128258595  0.3787656587917974  0.3206981899302034
  0.7908434017919831  0.3772889937279442  0.0379094772506036
  0.9558483290912857  0.0518719835490693  0.2213215703217232
  0.4578819920565281  0.7970605714580420  0.2241192740348578
  0.2121545357340803  0.7980517207634437  0.2244880538251415
  0.4623873984034866  0.0312412715596122  0.2218168949690093
 
  0.00000000E+00  0.00000000E+00  0.00000000E+00
  0.00000000E+00  0.00000000E+00  0.00000000E+00
  0.00000000E+00  0.00000000E+00  0.00000000E+00
  0.00000000E+00  0.00000000E+00  0.00000000E+00
  0.00000000E+00  0.00000000E+00  0.00000000E+00
  0.00000000E+00  0.00000000E+00  0.00000000E+00
  0.00000000E+00  0.00000000E+00  0.00000000E+00
  0.00000000E+00  0.00000000E+00  0.00000000E+00
  0.00000000E+00  0.00000000E+00  0.00000000E+00
  0.00000000E+00  0.00000000E+00  0.00000000E+00
  0.00000000E+00  0.00000000E+00  0.00000000E+00
  0.00000000E+00  0.00000000E+00  0.00000000E+00
  0.00000000E+00  0.00000000E+00  0.00000000E+00
  0.00000000E+00  0.00000000E+00  0.00000000E+00
  0.00000000E+00  0.00000000E+00  0.00000000E+00
  0.00000000E+00  0.00000000E+00  0.00000000E+00
  0.00000000E+00  0.00000000E+00  0.00000000E+00
  0.00000000E+00  0.00000000E+00  0.00000000E+00
  0.00000000E+00  0.00000000E+00  0.00000000E+00
  0.00000000E+00  0.00000000E+00  0.00000000E+00
  0.00000000E+00  0.00000000E+00  0.00000000E+00
  0.00000000E+00  0.00000000E+00  0.00000000E+00
  0.00000000E+00  0.00000000E+00  0.00000000E+00
  0.00000000E+00  0.00000000E+00  0.00000000E+00
  0.00000000E+00  0.00000000E+00  0.00000000E+00
  0.00000000E+00  0.00000000E+00  0.00000000E+00
  0.00000000E+00  0.00000000E+00  0.00000000E+00
  0.00000000E+00  0.00000000E+00  0.00000000E+00
  0.00000000E+00  0.00000000E+00  0.00000000E+00
  0.00000000E+00  0.00000000E+00  0.00000000E+00
  0.00000000E+00  0.00000000E+00  0.00000000E+00
  0.00000000E+00  0.00000000E+00  0.00000000E+00
  0.00000000E+00  0.00000000E+00  0.00000000E+00
  0.00000000E+00  0.00000000E+00  0.00000000E+00
  0.00000000E+00  0.00000000E+00  0.00000000E+00
  0.00000000E+00  0.00000000E+00  0.00000000E+00
  0.00000000E+00  0.00000000E+00  0.00000000E+00
  0.00000000E+00  0.00000000E+00  0.00000000E+00
  0.00000000E+00  0.00000000E+00  0.00000000E+00
  0.00000000E+00  0.00000000E+00  0.00000000E+00
  0.00000000E+00  0.00000000E+00  0.00000000E+00
  0.00000000E+00  0.00000000E+00  0.00000000E+00
  0.00000000E+00  0.00000000E+00  0.00000000E+00
  0.00000000E+00  0.00000000E+00  0.00000000E+00
  0.00000000E+00  0.00000000E+00  0.00000000E+00
  0.00000000E+00  0.00000000E+00  0.00000000E+00
  0.00000000E+00  0.00000000E+00  0.00000000E+00
  0.00000000E+00  0.00000000E+00  0.00000000E+00
  0.00000000E+00  0.00000000E+00  0.00000000E+00
  0.00000000E+00  0.00000000E+00  0.00000000E+00
  0.00000000E+00  0.00000000E+00  0.00000000E+00
  0.00000000E+00  0.00000000E+00  0.00000000E+00
  0.00000000E+00  0.00000000E+00  0.00000000E+00
  0.00000000E+00  0.00000000E+00  0.00000000E+00
  0.00000000E+00  0.00000000E+00  0.00000000E+00
  0.00000000E+00  0.00000000E+00  0.00000000E+00
  0.00000000E+00  0.00000000E+00  0.00000000E+00
  0.00000000E+00  0.00000000E+00  0.00000000E+00
  0.00000000E+00  0.00000000E+00  0.00000000E+00
  0.00000000E+00  0.00000000E+00  0.00000000E+00
  0.00000000E+00  0.00000000E+00  0.00000000E+00
  0.00000000E+00  0.00000000E+00  0.00000000E+00
  0.00000000E+00  0.00000000E+00  0.00000000E+00
  0.00000000E+00  0.00000000E+00  0.00000000E+00
  0.00000000E+00  0.00000000E+00  0.00000000E+00
  0.00000000E+00  0.00000000E+00  0.00000000E+00
  0.00000000E+00  0.00000000E+00  0.00000000E+00
  0.00000000E+00  0.00000000E+00  0.00000000E+00
  0.00000000E+00  0.00000000E+00  0.00000000E+00
  0.00000000E+00  0.00000000E+00  0.00000000E+00
  0.00000000E+00  0.00000000E+00  0.00000000E+00
  0.00000000E+00  0.00000000E+00  0.00000000E+00
  0.00000000E+00  0.00000000E+00  0.00000000E+00
  0.00000000E+00  0.00000000E+00  0.00000000E+00
  0.00000000E+00  0.00000000E+00  0.00000000E+00
  0.00000000E+00  0.00000000E+00  0.00000000E+00
  0.00000000E+00  0.00000000E+00  0.00000000E+00
  0.00000000E+00  0.00000000E+00  0.00000000E+00
  0.00000000E+00  0.00000000E+00  0.00000000E+00
  0.00000000E+00  0.00000000E+00  0.00000000E+00
