10.46                                   
   1.00000000000000     
    10.4600000381000005    0.0000000000000000    0.0000000000000000
     5.2300000191000002    9.0586257565999997    0.0000000000000000
     0.0000000000000000    0.0000000000000000   22.0000000000000000
   Pt   Fe   Co   Cu   Ni
    32    13    10    13    12
Direct
  0.7872186361537246  0.8789608627211649  0.3184661629205223
  0.0419384017907021  0.8832909839653738  0.3168189444812270
  0.2789665064244247  0.3809183802801925  0.3208142442475790
  0.8737720345190141  0.9618448322627273  0.4272341136447082
  0.1219312601182452  0.4622944661241704  0.4304019837977435
  0.1237889670665098  0.9615839252885294  0.4234486531632697
  0.8735352932296934  0.4605730461814801  0.4290379290893966
  0.3742632657828935  0.9602347853665094  0.4219319191182009
  0.8736298050717366  0.2113889157085467  0.4220177249546495
  0.1246768653419892  0.2111060474226676  0.4240012271488069
  0.6241805258378648  0.9609373341589915  0.4258869065865198
  0.8734936471752448  0.7109910012243859  0.4287176347616608
  0.3740407661925431  0.2096941716802689  0.4272044023002053
  0.3747221532704756  0.7122392511492208  0.4262537747019834
  0.6247749612836557  0.4614904532952409  0.4243515833233218
  0.1238063108484084  0.7111580758527865  0.4286289506509320
  0.6244413205454720  0.2108621787385871  0.4233347634521749
  0.5477135741603689  0.3762580136739473  0.3177846046375308
  0.5342784535889820  0.1248738526227839  0.3156956044923547
  0.5463555366677966  0.1234644042325854  0.0380197407814364
  0.1212406355833053  0.4603947908320905  0.1271502081712157
  0.0426193655275213  0.1374358248756380  0.3143664084122832
  0.0428389108532130  0.1298145715247685  0.0317328682490015
  0.1301938677377308  0.9582784145599916  0.1312468517268215
  0.3739566341517673  0.4616251366392561  0.4293266487896759
  0.4540328858834002  0.5454509107459700  0.2187083565726695
  0.6224938581997890  0.7114939283415538  0.4256294176066007
  0.9563613465416907  0.7904679019023462  0.2212711332431994
  0.7933642634541087  0.6224358816496718  0.3194747131321094
  0.2916468809200410  0.6317008455741302  0.3192476670449480
  0.2029926352724303  0.2819160129471996  0.2253742575910778
  0.7072898954020417  0.5486203295557885  0.2205217376912145
  0.0401979169284274  0.6307657805342899  0.3268295766589944
  0.7977582256006031  0.8618987641761322  0.0403945815479005
  0.0556446370177497  0.8665462419261090  0.0360495583160301
  0.0467868659107040  0.6273110610675658  0.0349611333993067
  0.6268079290780406  0.2205144568038548  0.1279874704265325
  0.3824299677898395  0.9550771594331877  0.1293430731155780
  0.0351370698652289  0.3838707578905698  0.3256311507787188
  0.0322869523527061  0.3824189837586189  0.0357072738646238
  0.8718083387394557  0.2155041916657581  0.1275053200966596
  0.9551923697405087  0.5450551850550838  0.2237018674985336
  0.2958132809466747  0.1164497081393989  0.3220967237678565
  0.5397236535087302  0.6311358892129775  0.3229687786040998
  0.2950173596015802  0.1200886714844387  0.0375064116581072
  0.5475598048883867  0.6253949978176152  0.0421816458273696
  0.2945030729907501  0.3799106327169284  0.0369388269675497
  0.6254732335706237  0.9512088976075859  0.1314671777610599
  0.7062955093186432  0.7947981595540270  0.2196547961767550
  0.8663903657636780  0.7066093915346201  0.1280570884568633
  0.6260467991858789  0.4606603453772848  0.1263164780092296
  0.2979004654319226  0.8762452693893792  0.3179618312905532
  0.3052443792954875  0.8677867716341936  0.0391308983727896
  0.6272703420168853  0.7138141950530681  0.1276925297301119
  0.2234256011560447  0.0289588899696724  0.2271318947630050
  0.5432742053995909  0.3804519971167721  0.0330732290089770
  0.3785909415048252  0.2051562216603315  0.1314700547823620
  0.1350161306799365  0.7053169766076834  0.1306768704284167
  0.7050897259640436  0.0499878032776095  0.2204400288870687
  0.7924748057325530  0.1301652202301113  0.3175790391614868
  0.5377275890690711  0.8735803385809433  0.3171559807940554
  0.7961297016611155  0.1231870354589475  0.0328180932670037
  0.5460691330515957  0.8700680657862847  0.0347715803142421
  0.2070546213844722  0.5423754641345582  0.2243282066682539
  0.9518391764872476  0.2957259705602695  0.2207862691746527
  0.8717417800828855  0.9631728889816387  0.1282003082867433
  0.7139194298417095  0.2891101091149366  0.2228863708699151
  0.4574638451741109  0.2907874154091203  0.2206832389849467
  0.8752232243211324  0.4564829535902390  0.1268246701372178
  0.1275845306882317  0.2075320190978758  0.1280611435149268
  0.7923383526134202  0.6224713498462293  0.0390182938154098
  0.2981210247481911  0.6250642790019683  0.0405325909595717
  0.3856345194580726  0.7104295515015480  0.1282660679017340
  0.3824089299392597  0.4515722852921158  0.1254473441382018
  0.7925380128258581  0.3787656587917994  0.3206981899302050
  0.7908434017919816  0.3772889937279444  0.0379094772506008
  0.9558483290912889  0.0518719835490700  0.2213215703217202
  0.4578819920565280  0.7970605714580401  0.2241192740348552
  0.2121545357340793  0.7980517207634463  0.2244880538251408
  0.4623873984034859  0.0312412715596153  0.2218168949690096
 
  0.00000000E+00  0.00000000E+00  0.00000000E+00
  0.00000000E+00  0.00000000E+00  0.00000000E+00
  0.00000000E+00  0.00000000E+00  0.00000000E+00
  0.00000000E+00  0.00000000E+00  0.00000000E+00
  0.00000000E+00  0.00000000E+00  0.00000000E+00
  0.00000000E+00  0.00000000E+00  0.00000000E+00
  0.00000000E+00  0.00000000E+00  0.00000000E+00
  0.00000000E+00  0.00000000E+00  0.00000000E+00
  0.00000000E+00  0.00000000E+00  0.00000000E+00
  0.00000000E+00  0.00000000E+00  0.00000000E+00
  0.00000000E+00  0.00000000E+00  0.00000000E+00
  0.00000000E+00  0.00000000E+00  0.00000000E+00
  0.00000000E+00  0.00000000E+00  0.00000000E+00
  0.00000000E+00  0.00000000E+00  0.00000000E+00
  0.00000000E+00  0.00000000E+00  0.00000000E+00
  0.00000000E+00  0.00000000E+00  0.00000000E+00
  0.00000000E+00  0.00000000E+00  0.00000000E+00
  0.00000000E+00  0.00000000E+00  0.00000000E+00
  0.00000000E+00  0.00000000E+00  0.00000000E+00
  0.00000000E+00  0.00000000E+00  0.00000000E+00
  0.00000000E+00  0.00000000E+00  0.00000000E+00
  0.00000000E+00  0.00000000E+00  0.00000000E+00
  0.00000000E+00  0.00000000E+00  0.00000000E+00
  0.00000000E+00  0.00000000E+00  0.00000000E+00
  0.00000000E+00  0.00000000E+00  0.00000000E+00
  0.00000000E+00  0.00000000E+00  0.00000000E+00
  0.00000000E+00  0.00000000E+00  0.00000000E+00
  0.00000000E+00  0.00000000E+00  0.00000000E+00
  0.00000000E+00  0.00000000E+00  0.00000000E+00
  0.00000000E+00  0.00000000E+00  0.00000000E+00
  0.00000000E+00  0.00000000E+00  0.00000000E+00
  0.00000000E+00  0.00000000E+00  0.00000000E+00
  0.00000000E+00  0.00000000E+00  0.00000000E+00
  0.00000000E+00  0.00000000E+00  0.00000000E+00
  0.00000000E+00  0.00000000E+00  0.00000000E+00
  0.00000000E+00  0.00000000E+00  0.00000000E+00
  0.00000000E+00  0.00000000E+00  0.00000000E+00
  0.00000000E+00  0.00000000E+00  0.00000000E+00
  0.00000000E+00  0.00000000E+00  0.00000000E+00
  0.00000000E+00  0.00000000E+00  0.00000000E+00
  0.00000000E+00  0.00000000E+00  0.00000000E+00
  0.00000000E+00  0.00000000E+00  0.00000000E+00
  0.00000000E+00  0.00000000E+00  0.00000000E+00
  0.00000000E+00  0.00000000E+00  0.00000000E+00
  0.00000000E+00  0.00000000E+00  0.00000000E+00
  0.00000000E+00  0.00000000E+00  0.00000000E+00
  0.00000000E+00  0.00000000E+00  0.00000000E+00
  0.00000000E+00  0.00000000E+00  0.00000000E+00
  0.00000000E+00  0.00000000E+00  0.00000000E+00
  0.00000000E+00  0.00000000E+00  0.00000000E+00
  0.00000000E+00  0.00000000E+00  0.00000000E+00
  0.00000000E+00  0.00000000E+00  0.00000000E+00
  0.00000000E+00  0.00000000E+00  0.00000000E+00
  0.00000000E+00  0.00000000E+00  0.00000000E+00
  0.00000000E+00  0.00000000E+00  0.00000000E+00
  0.00000000E+00  0.00000000E+00  0.00000000E+00
  0.00000000E+00  0.00000000E+00  0.00000000E+00
  0.00000000E+00  0.00000000E+00  0.00000000E+00
  0.00000000E+00  0.00000000E+00  0.00000000E+00
  0.00000000E+00  0.00000000E+00  0.00000000E+00
  0.00000000E+00  0.00000000E+00  0.00000000E+00
  0.00000000E+00  0.00000000E+00  0.00000000E+00
  0.00000000E+00  0.00000000E+00  0.00000000E+00
  0.00000000E+00  0.00000000E+00  0.00000000E+00
  0.00000000E+00  0.00000000E+00  0.00000000E+00
  0.00000000E+00  0.00000000E+00  0.00000000E+00
  0.00000000E+00  0.00000000E+00  0.00000000E+00
  0.00000000E+00  0.00000000E+00  0.00000000E+00
  0.00000000E+00  0.00000000E+00  0.00000000E+00
  0.00000000E+00  0.00000000E+00  0.00000000E+00
  0.00000000E+00  0.00000000E+00  0.00000000E+00
  0.00000000E+00  0.00000000E+00  0.00000000E+00
  0.00000000E+00  0.00000000E+00  0.00000000E+00
  0.00000000E+00  0.00000000E+00  0.00000000E+00
  0.00000000E+00  0.00000000E+00  0.00000000E+00
  0.00000000E+00  0.00000000E+00  0.00000000E+00
  0.00000000E+00  0.00000000E+00  0.00000000E+00
  0.00000000E+00  0.00000000E+00  0.00000000E+00
  0.00000000E+00  0.00000000E+00  0.00000000E+00
  0.00000000E+00  0.00000000E+00  0.00000000E+00
