11.26                                   
   1.00000000000000     
    11.2227001190000006    0.0000000000000000    0.0000000000000000
     5.6113500595000003    9.7191434021000003    0.0000000000000000
     0.0000000000000000    0.0000000000000000   22.0000000000000000
   Pt   Fe   Co   Cu   Ni   H 
    32    13    10    13    12     1
Selective dynamics
Direct
  0.7813465571313714  0.8725832359740266  0.3046012522681849   F   F   F
  0.0323663632613318  0.8703362399583767  0.2999589197318215   F   F   F
  0.2781001912310685  0.3612899551766375  0.3146879956999982   F   F   F
  0.8708156123362514  0.9563627362048805  0.4056881893954554   F   F   F
  0.1065865803055743  0.4631070505789125  0.4127926816000027   F   F   F
  0.1219594689042367  0.9474856356384507  0.4056621916818202   F   F   F
  0.8717152300360240  0.4466031925058473  0.4156992506181822   F   F   F
  0.3711509823359691  0.9510209485748362  0.4147136666772724   F   F   F
  0.8699328195158458  0.2033202744259341  0.4070570585500022   F   F   F
  0.1231226696710621  0.2055858844482401  0.4130373212818199   F   F   F
  0.6253562627333480  0.9468745300446528  0.4116973040545489   F   F   F
  0.8694301855196613  0.7077316825177959  0.4122806054681831   F   F   F
  0.3710515902631712  0.1936683688907479  0.4171422007863654   F   F   F
  0.3692216029841120  0.7041522156799616  0.4074503520227282   F   F   F
  0.6223338361782353  0.4552308625515309  0.4115295782000032   F   F   F
  0.1163855043690702  0.7048017556794051  0.4099579033681806   F   F   F
  0.6282600916143437  0.2001754683215822  0.4116391287318208   F   F   F
  0.5355261115235166  0.3720949985899580  0.3107928290409063   F   F   F
  0.5307660118670725  0.1174156867727092  0.3124479599499992   F   F   F
  0.5569226188755110  0.1086708656929360  0.0592961979909106   F   F   F
  0.0930745014782630  0.4259856488078384  0.1229365454818208   F   F   F
  0.0504726264187383  0.1242187286113250  0.3103796370681806   F   F   F
  0.0235476180177372  0.1116837216400626  0.0415554665318183   F   F   F
  0.1293428954640135  0.9475379252774658  0.1410218874318190   F   F   F
  0.3632860396717064  0.4589466020365762  0.4135352532409087   F   F   F
  0.4463733127121827  0.5590599617993064  0.2201686420090923   F   F   F
  0.6162511506038442  0.7031561919050802  0.4126175890045474   F   F   F
  0.9496412988475953  0.7566142239563121  0.2091809507181850   F   F   F
  0.7943337671937556  0.6146505156009141  0.3157560747545460   F   F   F
  0.2700394847788345  0.6159062333113212  0.3081639820409094   F   F   F
  0.1891672861307754  0.2657704220046710  0.2250055169318159   F   F   F
  0.6933157080343193  0.5494170253055657  0.2213121226772756   F   F   F
  0.0313623332011232  0.6256588125540077  0.3137548829818186   F   F   F
  0.7908976721677661  0.8607398451588253  0.0643550995272761   F   F   F
  0.0497744387680896  0.8515179213645325  0.0563143962045487   F   F   F
  0.0482691984141681  0.6404573579452517  0.0664752515863611   F   F   F
  0.6277707382687936  0.2312090485478890  0.1342846206409121   F   F   F
  0.3782172184191310  0.9483996770135477  0.1357048643863621   F   F   F
  0.0293285291093284  0.3761062247224558  0.3192697667000033   F   F   F
  0.9804591417191091  0.3557507153514052  0.0436524654181838   F   F   F
  0.8640049941009735  0.2076928001868836  0.1340350911636392   F   F   F
  0.9451399085370085  0.5266535011813929  0.2211150897863661   F   F   F
  0.2981416652333309  0.1068969798794726  0.3196075758727304   F   F   F
  0.5386853879587221  0.6169750319873231  0.3184215641500003   F   F   F
  0.2731123853233228  0.0985488070371545  0.0516987688636377   F   F   F
  0.5334473651308755  0.6203591302189508  0.0498930076045454   F   F   F
  0.2770995757786139  0.4215163844804266  0.0587340680727237   F   F   F
  0.6210554875665082  0.9270430545096389  0.1407946278545467   F   F   F
  0.7025641402416909  0.7747404709218557  0.2204396092954539   F   F   F
  0.8411225825284063  0.6704695058714734  0.1300022238272760   F   F   F
  0.6105486174653407  0.4610934769139945  0.1309991407090934   F   F   F
  0.3002136889713043  0.8807466219451427  0.3177929877136378   F   F   F
  0.2940362362996041  0.8760797686409489  0.0475515383727299   F   F   F
  0.6041934999629675  0.7158029702079318  0.1307821798045481   F   F   F
  0.2360731343730578  0.0174466072764545  0.2280154387772697   F   F   F
  0.5242744956851624  0.3792912181235550  0.0425614798636360   F   F   F
  0.3551744787353499  0.2076428621234214  0.1336254578909077   F   F   F
  0.1731039612630880  0.6910893229282635  0.1515240298045484   F   F   F
  0.6923909364538048  0.0568688020675339  0.2191301533863665   F   F   F
  0.7837014224736834  0.1255320623869380  0.3106234749545465   F   F   F
  0.5393834177049186  0.8682222915835069  0.3157911141954557   F   F   F
  0.7883185831952346  0.1103053582652507  0.0446684269954574   F   F   F
  0.5334963982674452  0.8779383385532000  0.0444767040636336   F   F   F
  0.1956673589336688  0.5076262213739966  0.2180563182363642   F   F   F
  0.9389271056883146  0.2975856390981022  0.2254350185045482   F   F   F
  0.8699442896834526  0.9728939451039409  0.1405358531681813   F   F   F
  0.7122658308791756  0.2953772504045702  0.2257043105318175   F   F   F
  0.4508133290681684  0.2778763517489082  0.2206428684818178   F   F   F
  0.8520537964486579  0.4351961425516251  0.1324833155681802   F   F   F
  0.1113962825649395  0.1869968796949024  0.1345737873590878   F   F   F
  0.7644304487144638  0.5913785966938292  0.0471152797272723   F   F   F
  0.2998235260282129  0.6241094473397055  0.0562708154227280   F   F   F
  0.3800882668218932  0.7239098677029290  0.1343728076227251   F   F   F
  0.3936821377214841  0.4392606579894220  0.1380873863636367   F   F   F
  0.7836456816585198  0.3814166179088403  0.3176065585772747   F   F   F
  0.7666413314546432  0.3542370531291965  0.0467139270818180   F   F   F
  0.9442228821784298  0.0677696185198471  0.2233989054818153   F   F   F
  0.4628237781163875  0.7941129895493049  0.2276203148272700   F   F   F
  0.2363871684906798  0.7979533000741910  0.2316199022272727   F   F   F
  0.4553361678960712  0.0262284913447104  0.2236937692727281   F   F   F
  0.4558194562419118  0.2909511698931198  0.4477961420636370   T   T   T
 
  0.00000000E+00  0.00000000E+00  0.00000000E+00
  0.00000000E+00  0.00000000E+00  0.00000000E+00
  0.00000000E+00  0.00000000E+00  0.00000000E+00
  0.00000000E+00  0.00000000E+00  0.00000000E+00
  0.00000000E+00  0.00000000E+00  0.00000000E+00
  0.00000000E+00  0.00000000E+00  0.00000000E+00
  0.00000000E+00  0.00000000E+00  0.00000000E+00
  0.00000000E+00  0.00000000E+00  0.00000000E+00
  0.00000000E+00  0.00000000E+00  0.00000000E+00
  0.00000000E+00  0.00000000E+00  0.00000000E+00
  0.00000000E+00  0.00000000E+00  0.00000000E+00
  0.00000000E+00  0.00000000E+00  0.00000000E+00
  0.00000000E+00  0.00000000E+00  0.00000000E+00
  0.00000000E+00  0.00000000E+00  0.00000000E+00
  0.00000000E+00  0.00000000E+00  0.00000000E+00
  0.00000000E+00  0.00000000E+00  0.00000000E+00
  0.00000000E+00  0.00000000E+00  0.00000000E+00
  0.00000000E+00  0.00000000E+00  0.00000000E+00
  0.00000000E+00  0.00000000E+00  0.00000000E+00
  0.00000000E+00  0.00000000E+00  0.00000000E+00
  0.00000000E+00  0.00000000E+00  0.00000000E+00
  0.00000000E+00  0.00000000E+00  0.00000000E+00
  0.00000000E+00  0.00000000E+00  0.00000000E+00
  0.00000000E+00  0.00000000E+00  0.00000000E+00
  0.00000000E+00  0.00000000E+00  0.00000000E+00
  0.00000000E+00  0.00000000E+00  0.00000000E+00
  0.00000000E+00  0.00000000E+00  0.00000000E+00
  0.00000000E+00  0.00000000E+00  0.00000000E+00
  0.00000000E+00  0.00000000E+00  0.00000000E+00
  0.00000000E+00  0.00000000E+00  0.00000000E+00
  0.00000000E+00  0.00000000E+00  0.00000000E+00
  0.00000000E+00  0.00000000E+00  0.00000000E+00
  0.00000000E+00  0.00000000E+00  0.00000000E+00
  0.00000000E+00  0.00000000E+00  0.00000000E+00
  0.00000000E+00  0.00000000E+00  0.00000000E+00
  0.00000000E+00  0.00000000E+00  0.00000000E+00
  0.00000000E+00  0.00000000E+00  0.00000000E+00
  0.00000000E+00  0.00000000E+00  0.00000000E+00
  0.00000000E+00  0.00000000E+00  0.00000000E+00
  0.00000000E+00  0.00000000E+00  0.00000000E+00
  0.00000000E+00  0.00000000E+00  0.00000000E+00
  0.00000000E+00  0.00000000E+00  0.00000000E+00
  0.00000000E+00  0.00000000E+00  0.00000000E+00
  0.00000000E+00  0.00000000E+00  0.00000000E+00
  0.00000000E+00  0.00000000E+00  0.00000000E+00
  0.00000000E+00  0.00000000E+00  0.00000000E+00
  0.00000000E+00  0.00000000E+00  0.00000000E+00
  0.00000000E+00  0.00000000E+00  0.00000000E+00
  0.00000000E+00  0.00000000E+00  0.00000000E+00
  0.00000000E+00  0.00000000E+00  0.00000000E+00
  0.00000000E+00  0.00000000E+00  0.00000000E+00
  0.00000000E+00  0.00000000E+00  0.00000000E+00
  0.00000000E+00  0.00000000E+00  0.00000000E+00
  0.00000000E+00  0.00000000E+00  0.00000000E+00
  0.00000000E+00  0.00000000E+00  0.00000000E+00
  0.00000000E+00  0.00000000E+00  0.00000000E+00
  0.00000000E+00  0.00000000E+00  0.00000000E+00
  0.00000000E+00  0.00000000E+00  0.00000000E+00
  0.00000000E+00  0.00000000E+00  0.00000000E+00
  0.00000000E+00  0.00000000E+00  0.00000000E+00
  0.00000000E+00  0.00000000E+00  0.00000000E+00
  0.00000000E+00  0.00000000E+00  0.00000000E+00
  0.00000000E+00  0.00000000E+00  0.00000000E+00
  0.00000000E+00  0.00000000E+00  0.00000000E+00
  0.00000000E+00  0.00000000E+00  0.00000000E+00
  0.00000000E+00  0.00000000E+00  0.00000000E+00
  0.00000000E+00  0.00000000E+00  0.00000000E+00
  0.00000000E+00  0.00000000E+00  0.00000000E+00
  0.00000000E+00  0.00000000E+00  0.00000000E+00
  0.00000000E+00  0.00000000E+00  0.00000000E+00
  0.00000000E+00  0.00000000E+00  0.00000000E+00
  0.00000000E+00  0.00000000E+00  0.00000000E+00
  0.00000000E+00  0.00000000E+00  0.00000000E+00
  0.00000000E+00  0.00000000E+00  0.00000000E+00
  0.00000000E+00  0.00000000E+00  0.00000000E+00
  0.00000000E+00  0.00000000E+00  0.00000000E+00
  0.00000000E+00  0.00000000E+00  0.00000000E+00
  0.00000000E+00  0.00000000E+00  0.00000000E+00
  0.00000000E+00  0.00000000E+00  0.00000000E+00
  0.00000000E+00  0.00000000E+00  0.00000000E+00
  0.00000000E+00  0.00000000E+00  0.00000000E+00
