Pt111                                   
   1.00000000000000     
    11.2227001190000006    0.0000000000000000    0.0000000000000000
     5.6113500595000003    9.7191434021000003    0.0000000000000000
     0.0000000000000000    0.0000000000000000   22.0000000000000000
   Pt   H 
    80     2
Selective dynamics
Direct
  0.7849903404430378  0.8692641870449762  0.3267266644272695   F   F   F
  0.0351326634818534  0.8692145606036306  0.3266181380318187   F   F   F
  0.0351333920288468  0.6190432024493049  0.3264528580454567   F   F   F
  0.7862517930372519  0.8682138320828514  0.0229910737954526   F   F   F
  0.0364035185651161  0.8681890161921899  0.0229229656045433   F   F   F
  0.0362584398858701  0.6184407348286740  0.0228441511454562   F   F   F
  0.6191359592002428  0.2019286926125545  0.1260717005272696   F   F   F
  0.3694060905103953  0.9511548716219735  0.1260250471590894   F   F   F
  0.0348221565783362  0.3690337035592108  0.3263242933227275   F   F   F
  0.0360654232250397  0.3685716312742144  0.0229057675772708   F   F   F
  0.8687035654877704  0.2020588483523866  0.1260203337636341   F   F   F
  0.9521496865499515  0.5354864924284897  0.2260729328727251   F   F   F
  0.2847660007370933  0.1190434681774519  0.3263498710772694   F   F   F
  0.5349217000132924  0.6191148455840079  0.3284541319545440   F   F   F
  0.2846466814398241  0.3689323756994085  0.3263442137045445   F   F   F
  0.2865750065927344  0.1180370244925228  0.0229302492681853   F   F   F
  0.5363185228536409  0.6182166824497841  0.0232174250272692   F   F   F
  0.2863865172180411  0.3683908129626303  0.0230300588818153   F   F   F
  0.6192048985712972  0.9517834343406477  0.1260000418272753   F   F   F
  0.7018671360350694  0.7854100430137336  0.2264750486090890   F   F   F
  0.8690079059789184  0.7020334666145303  0.1259769487318181   F   F   F
  0.6187782624789335  0.4522362231789145  0.1263217626227302   F   F   F
  0.2854247065736288  0.8680429093038313  0.3275107127409100   F   F   F
  0.2863275438210948  0.8681086440577630  0.0229800427590874   F   F   F
  0.6190219600235949  0.7019127710293844  0.1261299305409125   F   F   F
  0.2019718019297159  0.0354444538729197  0.2261741260590924   F   F   F
  0.8682299458017582  0.9530080262730465  0.4298283002636367   F   F   F
  0.1161673496361288  0.4525131386012617  0.4294217817000003   F   F   F
  0.1167409533857295  0.9537279652131900  0.4299030765999987   F   F   F
  0.8708585347507167  0.4509697885158204  0.4295755744136329   F   F   F
  0.3660847148822626  0.9557031406279108  0.4296030348227262   F   F   F
  0.8689046131603604  0.2016068457305238  0.4299203869409070   F   F   F
  0.1173802847953880  0.2022948563219273  0.4294885426999997   F   F   F
  0.6179113055062118  0.9543552495887511  0.4297708799818167   F   F   F
  0.8695387990815036  0.7027325617115849  0.4297788308136390   F   F   F
  0.3677417490512411  0.2009662065463473  0.4294304693090893   F   F   F
  0.3631722054244548  0.7072892885102107  0.4337274613045423   F   F   F
  0.6224652507130912  0.4480831485271679  0.4336852403454543   F   F   F
  0.1143241579517635  0.7046575058271287  0.4296716711363615   F   F   F
  0.6197980754179042  0.1991445750848584  0.4296910234090916   F   F   F
  0.5345677421450716  0.3696721864113783  0.3279921804954569   F   F   F
  0.5363930281253104  0.3681203348256972  0.0231191107045490   F   F   F
  0.5348765190084279  0.1193024707557555  0.3264526385136364   F   F   F
  0.5365327414564547  0.1181138152104992  0.0228615839227260   F   F   F
  0.8683336511288218  0.4522296363330014  0.1260267232499999   F   F   F
  0.1190707223433947  0.4521729428182368  0.1258155377545478   F   F   F
  0.0349217268563606  0.1190644512406251  0.3265062680636390   F   F   F
  0.0361791905852868  0.1180952150527972  0.0229524043590885   F   F   F
  0.1192046904731114  0.9515294134256536  0.1260290397181834   F   F   F
  0.3626013798906129  0.4473955212617255  0.4312483380000032   F   F   F
  0.4519675931763842  0.5356119726636805  0.2272369430045487   F   F   F
  0.6227136056990901  0.7075186275175440  0.4312102002954532   F   F   F
  0.3693144587611812  0.2018984700828668  0.1258041472772717   F   F   F
  0.1188624354669088  0.2017736641869377  0.1254107056181795   F   F   F
  0.9520317699837335  0.7855776103735934  0.2263489346090921   F   F   F
  0.7850726363725258  0.6189407128821927  0.3267660874590916   F   F   F
  0.2854663938686954  0.6187914863876287  0.3279844823363618   F   F   F
  0.7863355236971472  0.6182517422267537  0.0229508863454555   F   F   F
  0.2862027574098818  0.6183158422069894  0.0231249755999983   F   F   F
  0.3693844728383056  0.7016595769773843  0.1263135033863634   F   F   F
  0.3694999452976688  0.4522713082461820  0.1262278871272713   F   F   F
  0.2015261766554488  0.2850896747136460  0.2258146603499966   F   F   F
  0.7838233149719116  0.3696505843327458  0.3275027352045470   F   F   F
  0.7860791769327307  0.3683201164031118  0.0229887011818164   F   F   F
  0.9520093321140806  0.0356668343040525  0.2263705095181834   F   F   F
  0.4519607047514711  0.7851726938766177  0.2268055083272742   F   F   F
  0.7015828126187245  0.5355720401630535  0.2267903430636338   F   F   F
  0.2025470084223073  0.7852492855647100  0.2266610365227280   F   F   F
  0.4518073283936914  0.0358026585475457  0.2260783095727277   F   F   F
  0.1190506680690788  0.7020664986716483  0.1260663762363663   F   F   F
  0.7019666199890793  0.0356448420778648  0.2263571888590903   F   F   F
  0.7849518087508542  0.1193899142129453  0.3266482411454561   F   F   F
  0.5346636913628799  0.8693783369400947  0.3267536051454556   F   F   F
  0.7862517337382329  0.1183117000672667  0.0229423522909116   F   F   F
  0.5363259359299377  0.8682797899531565  0.0229342782363631   F   F   F
  0.2022302967315497  0.5356195861844384  0.2263303066409108   F   F   F
  0.9518240731440244  0.2855660939111502  0.2261788446909065   F   F   F
  0.8691718872254626  0.9519437207913768  0.1260144100227265   F   F   F
  0.7016715672519638  0.2861119478697205  0.2266533245045466   F   F   F
  0.4519806651077047  0.2858017427543871  0.2263527305772755   F   F   F
  0.4415140888307931  0.5268113249562418  0.4694564617136336   T   T   T
  0.5451872216391462  0.6308064666969814  0.4695189623545482   T   T   T
 
  0.00000000E+00  0.00000000E+00  0.00000000E+00
  0.00000000E+00  0.00000000E+00  0.00000000E+00
  0.00000000E+00  0.00000000E+00  0.00000000E+00
  0.00000000E+00  0.00000000E+00  0.00000000E+00
  0.00000000E+00  0.00000000E+00  0.00000000E+00
  0.00000000E+00  0.00000000E+00  0.00000000E+00
  0.00000000E+00  0.00000000E+00  0.00000000E+00
  0.00000000E+00  0.00000000E+00  0.00000000E+00
  0.00000000E+00  0.00000000E+00  0.00000000E+00
  0.00000000E+00  0.00000000E+00  0.00000000E+00
  0.00000000E+00  0.00000000E+00  0.00000000E+00
  0.00000000E+00  0.00000000E+00  0.00000000E+00
  0.00000000E+00  0.00000000E+00  0.00000000E+00
  0.00000000E+00  0.00000000E+00  0.00000000E+00
  0.00000000E+00  0.00000000E+00  0.00000000E+00
  0.00000000E+00  0.00000000E+00  0.00000000E+00
  0.00000000E+00  0.00000000E+00  0.00000000E+00
  0.00000000E+00  0.00000000E+00  0.00000000E+00
  0.00000000E+00  0.00000000E+00  0.00000000E+00
  0.00000000E+00  0.00000000E+00  0.00000000E+00
  0.00000000E+00  0.00000000E+00  0.00000000E+00
  0.00000000E+00  0.00000000E+00  0.00000000E+00
  0.00000000E+00  0.00000000E+00  0.00000000E+00
  0.00000000E+00  0.00000000E+00  0.00000000E+00
  0.00000000E+00  0.00000000E+00  0.00000000E+00
  0.00000000E+00  0.00000000E+00  0.00000000E+00
  0.00000000E+00  0.00000000E+00  0.00000000E+00
  0.00000000E+00  0.00000000E+00  0.00000000E+00
  0.00000000E+00  0.00000000E+00  0.00000000E+00
  0.00000000E+00  0.00000000E+00  0.00000000E+00
  0.00000000E+00  0.00000000E+00  0.00000000E+00
  0.00000000E+00  0.00000000E+00  0.00000000E+00
  0.00000000E+00  0.00000000E+00  0.00000000E+00
  0.00000000E+00  0.00000000E+00  0.00000000E+00
  0.00000000E+00  0.00000000E+00  0.00000000E+00
  0.00000000E+00  0.00000000E+00  0.00000000E+00
  0.00000000E+00  0.00000000E+00  0.00000000E+00
  0.00000000E+00  0.00000000E+00  0.00000000E+00
  0.00000000E+00  0.00000000E+00  0.00000000E+00
  0.00000000E+00  0.00000000E+00  0.00000000E+00
  0.00000000E+00  0.00000000E+00  0.00000000E+00
  0.00000000E+00  0.00000000E+00  0.00000000E+00
  0.00000000E+00  0.00000000E+00  0.00000000E+00
  0.00000000E+00  0.00000000E+00  0.00000000E+00
  0.00000000E+00  0.00000000E+00  0.00000000E+00
  0.00000000E+00  0.00000000E+00  0.00000000E+00
  0.00000000E+00  0.00000000E+00  0.00000000E+00
  0.00000000E+00  0.00000000E+00  0.00000000E+00
  0.00000000E+00  0.00000000E+00  0.00000000E+00
  0.00000000E+00  0.00000000E+00  0.00000000E+00
  0.00000000E+00  0.00000000E+00  0.00000000E+00
  0.00000000E+00  0.00000000E+00  0.00000000E+00
  0.00000000E+00  0.00000000E+00  0.00000000E+00
  0.00000000E+00  0.00000000E+00  0.00000000E+00
  0.00000000E+00  0.00000000E+00  0.00000000E+00
  0.00000000E+00  0.00000000E+00  0.00000000E+00
  0.00000000E+00  0.00000000E+00  0.00000000E+00
  0.00000000E+00  0.00000000E+00  0.00000000E+00
  0.00000000E+00  0.00000000E+00  0.00000000E+00
  0.00000000E+00  0.00000000E+00  0.00000000E+00
  0.00000000E+00  0.00000000E+00  0.00000000E+00
  0.00000000E+00  0.00000000E+00  0.00000000E+00
  0.00000000E+00  0.00000000E+00  0.00000000E+00
  0.00000000E+00  0.00000000E+00  0.00000000E+00
  0.00000000E+00  0.00000000E+00  0.00000000E+00
  0.00000000E+00  0.00000000E+00  0.00000000E+00
  0.00000000E+00  0.00000000E+00  0.00000000E+00
  0.00000000E+00  0.00000000E+00  0.00000000E+00
  0.00000000E+00  0.00000000E+00  0.00000000E+00
  0.00000000E+00  0.00000000E+00  0.00000000E+00
  0.00000000E+00  0.00000000E+00  0.00000000E+00
  0.00000000E+00  0.00000000E+00  0.00000000E+00
  0.00000000E+00  0.00000000E+00  0.00000000E+00
  0.00000000E+00  0.00000000E+00  0.00000000E+00
  0.00000000E+00  0.00000000E+00  0.00000000E+00
  0.00000000E+00  0.00000000E+00  0.00000000E+00
  0.00000000E+00  0.00000000E+00  0.00000000E+00
  0.00000000E+00  0.00000000E+00  0.00000000E+00
  0.00000000E+00  0.00000000E+00  0.00000000E+00
  0.00000000E+00  0.00000000E+00  0.00000000E+00
  0.00000000E+00  0.00000000E+00  0.00000000E+00
  0.00000000E+00  0.00000000E+00  0.00000000E+00
