10.36                                   
   1.00000000000000     
    10.3599996566999994    0.0000000000000000    0.0000000000000000
     5.1799998282999997    8.9720228858999995    0.0000000000000000
     0.0000000000000000    0.0000000000000000   22.0000000000000000
   Pt   Fe   Co   Cu   Ni   H 
    32    13    10    13    12     1
Selective dynamics
Direct
  0.7889992784271379  0.8762001869051370  0.3194400538832045   T   T   T
  0.0420992429710873  0.8829257460261507  0.3175722621673046   T   T   T
  0.2807636930441120  0.3793323877783143  0.3218988824519387   T   T   T
  0.8760029045920231  0.9610111477134634  0.4299745622516012   T   T   T
  0.1240562712192965  0.4611164382159455  0.4317736196419812   T   T   T
  0.1255264286920056  0.9603009795690086  0.4233522069484925   T   T   T
  0.8740469418094854  0.4627201685462412  0.4479325625997394   T   T   T
  0.3758803353490495  0.9599668598265245  0.4231013176889696   T   T   T
  0.8760750555339472  0.2094196299958396  0.4375999009347502   T   T   T
  0.1264085488592064  0.2106519390962311  0.4244190514308084   T   T   T
  0.6260683581002839  0.9603890613206604  0.4255611515133197   T   T   T
  0.8752301726074047  0.7091104852309732  0.4305144495084263   T   T   T
  0.3761103266585201  0.2091516757367002  0.4300245992118318   T   T   T
  0.3765513617565774  0.7113520719686866  0.4276761171375866   T   T   T
  0.6272439497640165  0.4608594564189601  0.4227564670860494   T   T   T
  0.1256187614736965  0.7100954893988524  0.4294404513638539   T   T   T
  0.6263895191794517  0.2100866886199999  0.4232703662393544   T   T   T
  0.5487221326798140  0.3752627214974898  0.3180522295818665   T   T   T
  0.5357562734985567  0.1236799505877641  0.3158037917637118   T   T   T
  0.5458014400089226  0.1234550493780731  0.0359400593772747   F   F   F
  0.1219383108401360  0.4607637042028472  0.1261476945818174   F   F   F
  0.0396758672826332  0.1383293141949059  0.3153418874083107   T   T   T
  0.0426177556592364  0.1297797889737780  0.0304909520954553   F   F   F
  0.1298428761067072  0.9585265795537836  0.1305436315363622   F   F   F
  0.3763378273893697  0.4607271709295467  0.4331986085642995   T   T   T
  0.4536142831861127  0.5450805790169824  0.2185534362818160   F   F   F
  0.6242196917566238  0.7112229194464827  0.4263792900071275   T   T   T
  0.9567679528542641  0.7907913211133391  0.2215395440363608   F   F   F
  0.7957494702160430  0.6177367452298105  0.3213385786298085   T   T   T
  0.2925841972742204  0.6311495177855037  0.3199195653445837   T   T   T
  0.2033968113129916  0.2831573253555248  0.2254814981590911   F   F   F
  0.7079943538448035  0.5476533912460155  0.2203153201272698   F   F   F
  0.0410974273237320  0.6285310851723986  0.3278008478448772   T   T   T
  0.7980538117324372  0.8624341141126948  0.0385159092227241   F   F   F
  0.0552849574256129  0.8673564735473107  0.0343513444545422   F   F   F
  0.0474090248444483  0.6263712164546362  0.0327916081590942   F   F   F
  0.6264571710535165  0.2185083723293815  0.1268634264227302   F   F   F
  0.3829453672912493  0.9548385219640068  0.1285988211636351   F   F   F
  0.0360606558574172  0.3815202188881514  0.3271819772819382   T   T   T
  0.0333104805050652  0.3830854889148227  0.0338960332000013   F   F   F
  0.8707331529917894  0.2156009995070320  0.1265163613454519   F   F   F
  0.9554721997300177  0.5448036240836771  0.2234071909181807   F   F   F
  0.2955052084052787  0.1159462542635397  0.3225304734242512   T   T   T
  0.5403870253328538  0.6312698077415968  0.3226075191240009   T   T   T
  0.2949796661070749  0.1207060839425580  0.0354777079681838   F   F   F
  0.5468395352815776  0.6255393754088701  0.0407606834636383   F   F   F
  0.2937150855157071  0.3805059751201867  0.0349060453818169   F   F   F
  0.6256401488194570  0.9526282026021207  0.1307260463590936   F   F   F
  0.7059268653305040  0.7956112008160545  0.2192326928636348   F   F   F
  0.8672931192344109  0.7077434861182965  0.1272654984636361   F   F   F
  0.6257430270251945  0.4611784098882126  0.1254728431772705   F   F   F
  0.2979261413209498  0.8770239522071241  0.3176473232705349   T   T   T
  0.3044523837364466  0.8674590556084283  0.0378147787681797   F   F   F
  0.6276506550672281  0.7130309952902323  0.1270004925727264   F   F   F
  0.2224885567561898  0.0301811762680160  0.2268316968727291   F   F   F
  0.5436321503495236  0.3798759509136147  0.0314790966954561   F   F   F
  0.3785322377896421  0.2050962626379231  0.1304079932181850   F   F   F
  0.1335856850995540  0.7058118501962269  0.1296243496818192   F   F   F
  0.7052232585528557  0.0495490680701067  0.2204402018590912   F   F   F
  0.7939623962134709  0.1293805616526641  0.3197209155440957   T   T   T
  0.5385855092652626  0.8726780062458179  0.3170254190755717   T   T   T
  0.7961477246739292  0.1230227477835157  0.0309807547499972   F   F   F
  0.5459767523362302  0.8695969387529416  0.0336065307954527   F   F   F
  0.2072282577882945  0.5419788292495227  0.2243820184272707   F   F   F
  0.9526128984599183  0.2947893967765651  0.2201704496772692   F   F   F
  0.8718774810604728  0.9624754198042567  0.1273033371999972   F   F   F
  0.7130345181012316  0.2886236761800518  0.2224983166227261   F   F   F
  0.4575250881556840  0.2905277095867049  0.2202344651227293   F   F   F
  0.8748423801886673  0.4570171218626697  0.1258167675954525   F   F   F
  0.1277806656162355  0.2080787861602431  0.1274778483136387   F   F   F
  0.7924830963535570  0.6234970774306987  0.0376528518590931   F   F   F
  0.2975240081599964  0.6248523074111176  0.0387144017045458   F   F   F
  0.3848216830637057  0.7097879868995918  0.1274289244681839   F   F   F
  0.3825565390611771  0.4518961651637952  0.1244171486045431   F   F   F
  0.7934798170091389  0.3762460165474368  0.3209068110808568   T   T   T
  0.7906424157987573  0.3775544735093703  0.0363354318318159   F   F   F
  0.9558869718144862  0.0511319708759288  0.2211004496863609   F   F   F
  0.4577502232223978  0.7969477794396838  0.2237495504727249   F   F   F
  0.2115698532229970  0.7984364491376823  0.2244089375772731   F   F   F
  0.4622948514299310  0.0319863000740881  0.2214779897681822   F   F   F
  0.8762040798459487  0.3286711738202371  0.4951671694606748   T   T   T
 
  0.00000000E+00  0.00000000E+00  0.00000000E+00
  0.00000000E+00  0.00000000E+00  0.00000000E+00
  0.00000000E+00  0.00000000E+00  0.00000000E+00
  0.00000000E+00  0.00000000E+00  0.00000000E+00
  0.00000000E+00  0.00000000E+00  0.00000000E+00
  0.00000000E+00  0.00000000E+00  0.00000000E+00
  0.00000000E+00  0.00000000E+00  0.00000000E+00
  0.00000000E+00  0.00000000E+00  0.00000000E+00
  0.00000000E+00  0.00000000E+00  0.00000000E+00
  0.00000000E+00  0.00000000E+00  0.00000000E+00
  0.00000000E+00  0.00000000E+00  0.00000000E+00
  0.00000000E+00  0.00000000E+00  0.00000000E+00
  0.00000000E+00  0.00000000E+00  0.00000000E+00
  0.00000000E+00  0.00000000E+00  0.00000000E+00
  0.00000000E+00  0.00000000E+00  0.00000000E+00
  0.00000000E+00  0.00000000E+00  0.00000000E+00
  0.00000000E+00  0.00000000E+00  0.00000000E+00
  0.00000000E+00  0.00000000E+00  0.00000000E+00
  0.00000000E+00  0.00000000E+00  0.00000000E+00
  0.00000000E+00  0.00000000E+00  0.00000000E+00
  0.00000000E+00  0.00000000E+00  0.00000000E+00
  0.00000000E+00  0.00000000E+00  0.00000000E+00
  0.00000000E+00  0.00000000E+00  0.00000000E+00
  0.00000000E+00  0.00000000E+00  0.00000000E+00
  0.00000000E+00  0.00000000E+00  0.00000000E+00
  0.00000000E+00  0.00000000E+00  0.00000000E+00
  0.00000000E+00  0.00000000E+00  0.00000000E+00
  0.00000000E+00  0.00000000E+00  0.00000000E+00
  0.00000000E+00  0.00000000E+00  0.00000000E+00
  0.00000000E+00  0.00000000E+00  0.00000000E+00
  0.00000000E+00  0.00000000E+00  0.00000000E+00
  0.00000000E+00  0.00000000E+00  0.00000000E+00
  0.00000000E+00  0.00000000E+00  0.00000000E+00
  0.00000000E+00  0.00000000E+00  0.00000000E+00
  0.00000000E+00  0.00000000E+00  0.00000000E+00
  0.00000000E+00  0.00000000E+00  0.00000000E+00
  0.00000000E+00  0.00000000E+00  0.00000000E+00
  0.00000000E+00  0.00000000E+00  0.00000000E+00
  0.00000000E+00  0.00000000E+00  0.00000000E+00
  0.00000000E+00  0.00000000E+00  0.00000000E+00
  0.00000000E+00  0.00000000E+00  0.00000000E+00
  0.00000000E+00  0.00000000E+00  0.00000000E+00
  0.00000000E+00  0.00000000E+00  0.00000000E+00
  0.00000000E+00  0.00000000E+00  0.00000000E+00
  0.00000000E+00  0.00000000E+00  0.00000000E+00
  0.00000000E+00  0.00000000E+00  0.00000000E+00
  0.00000000E+00  0.00000000E+00  0.00000000E+00
  0.00000000E+00  0.00000000E+00  0.00000000E+00
  0.00000000E+00  0.00000000E+00  0.00000000E+00
  0.00000000E+00  0.00000000E+00  0.00000000E+00
  0.00000000E+00  0.00000000E+00  0.00000000E+00
  0.00000000E+00  0.00000000E+00  0.00000000E+00
  0.00000000E+00  0.00000000E+00  0.00000000E+00
  0.00000000E+00  0.00000000E+00  0.00000000E+00
  0.00000000E+00  0.00000000E+00  0.00000000E+00
  0.00000000E+00  0.00000000E+00  0.00000000E+00
  0.00000000E+00  0.00000000E+00  0.00000000E+00
  0.00000000E+00  0.00000000E+00  0.00000000E+00
  0.00000000E+00  0.00000000E+00  0.00000000E+00
  0.00000000E+00  0.00000000E+00  0.00000000E+00
  0.00000000E+00  0.00000000E+00  0.00000000E+00
  0.00000000E+00  0.00000000E+00  0.00000000E+00
  0.00000000E+00  0.00000000E+00  0.00000000E+00
  0.00000000E+00  0.00000000E+00  0.00000000E+00
  0.00000000E+00  0.00000000E+00  0.00000000E+00
  0.00000000E+00  0.00000000E+00  0.00000000E+00
  0.00000000E+00  0.00000000E+00  0.00000000E+00
  0.00000000E+00  0.00000000E+00  0.00000000E+00
  0.00000000E+00  0.00000000E+00  0.00000000E+00
  0.00000000E+00  0.00000000E+00  0.00000000E+00
  0.00000000E+00  0.00000000E+00  0.00000000E+00
  0.00000000E+00  0.00000000E+00  0.00000000E+00
  0.00000000E+00  0.00000000E+00  0.00000000E+00
  0.00000000E+00  0.00000000E+00  0.00000000E+00
  0.00000000E+00  0.00000000E+00  0.00000000E+00
  0.00000000E+00  0.00000000E+00  0.00000000E+00
  0.00000000E+00  0.00000000E+00  0.00000000E+00
  0.00000000E+00  0.00000000E+00  0.00000000E+00
  0.00000000E+00  0.00000000E+00  0.00000000E+00
  0.00000000E+00  0.00000000E+00  0.00000000E+00
  0.00000000E+00  0.00000000E+00  0.00000000E+00
