PtM\(2)                                 
   1.00000000000000     
    10.5600004195999997    0.0000000000000000    0.0000000000000000
     5.2800002097999998    9.1452286273999999    0.0000000000000000
     0.0000000000000000    0.0000000000000000   22.0000000000000000
   Ni   Pt   H 
    64    16     1
Selective dynamics
Direct
  0.7853583574573653  0.8690369476206989  0.3108425891759042   T   T   T
  0.0355186773393749  0.8691531278718383  0.3108396423860267   T   T   T
  0.0355915240945235  0.6190311794641959  0.3108716083578826   T   T   T
  0.7874164227977971  0.8671974162722194  0.0507952848136384   F   F   F
  0.0371812071091995  0.8676186467801656  0.0508907119909097   F   F   F
  0.0374684841738073  0.6171956253437827  0.0509625431272696   F   F   F
  0.6195540567074858  0.2015927253995997  0.1375472916636369   F   F   F
  0.3695075232167966  0.9518242491084408  0.1375177793318159   F   F   F
  0.0353730005413149  0.3691489564497125  0.3109416372709478   T   T   T
  0.0370441529486243  0.3679087439453710  0.0510122538363618   F   F   F
  0.8696832728241688  0.2017788834137235  0.1375957440090900   F   F   F
  0.9522376083461180  0.5354564368432836  0.2251685526032383   T   T   T
  0.2853764392106975  0.1193189135798920  0.3108561785135076   T   T   T
  0.5345810653520865  0.6186732760032266  0.3121884486088539   T   T   T
  0.2858727785107886  0.3698848035874185  0.3115442303451816   T   T   T
  0.2865437969577087  0.1185517643978500  0.0509036111818162   F   F   F
  0.5363140996786200  0.6178282872416645  0.0507770374954575   F   F   F
  0.2861704337189792  0.3683748117358761  0.0510002003863619   F   F   F
  0.6196234901564495  0.9517335769848856  0.1373589130318180   F   F   F
  0.7023139908783810  0.7852512067906086  0.2249446976376901   T   T   T
  0.8696404260012258  0.7014772441204471  0.1376145676590923   F   F   F
  0.6196299646022467  0.4516165522451487  0.1375203790909083   F   F   F
  0.2854811589811452  0.8687935371815033  0.3113788288399637   T   T   T
  0.2865937880566349  0.8680734555957201  0.0508346510318205   F   F   F
  0.6194335686725978  0.7016555716469099  0.1373394372999996   F   F   F
  0.2024009193567535  0.0357107318426008  0.2249160717030780   T   T   T
  0.5346326168853555  0.3705738694219403  0.3121896469700746   T   T   T
  0.5363670832523084  0.3680933396912849  0.0508732332090887   F   F   F
  0.5353791421595304  0.1193139975278865  0.3108218510712959   T   T   T
  0.5357740562855895  0.1186998764413190  0.0508076041818200   F   F   F
  0.8695889210879457  0.4517664038733358  0.1377370143909076   F   F   F
  0.1194625732134043  0.4516968078549155  0.1379299702136336   F   F   F
  0.0353472742122306  0.1193612118232508  0.3108295013531471   T   T   T
  0.0372294765921879  0.1183068973757955  0.0509084329409077   F   F   F
  0.1194236500933172  0.9519185222901285  0.1376218898500028   F   F   F
  0.4525203668074310  0.5353448459352784  0.2256467435420685   T   T   T
  0.3693977441760410  0.2019043691557201  0.1377741168545441   F   F   F
  0.1196225089457670  0.2018141881625866  0.1378220913363606   F   F   F
  0.9525099692369025  0.7853329313291904  0.2250120166772707   T   T   T
  0.7849579376187764  0.6189482221629252  0.3108666102396304   T   T   T
  0.2863948191809438  0.6187754568341904  0.3122016629143864   T   T   T
  0.7873265514095209  0.6175143423293008  0.0508263513318212   F   F   F
  0.2865996923037599  0.6174998734400674  0.0509254706590880   F   F   F
  0.3692545354116845  0.7017889581208507  0.1375475984363632   F   F   F
  0.3695484132066582  0.4516338335080263  0.1377474529818201   F   F   F
  0.2025375353802848  0.2857273726998900  0.2250596443465215   T   T   T
  0.7840577586243708  0.3697759308221052  0.3114819545842002   T   T   T
  0.7871940568885378  0.3681532496423969  0.0508772485772724   F   F   F
  0.9524324882229768  0.0355141551770180  0.2249871300145125   T   T   T
  0.4522116013703816  0.7848671792004694  0.2252255736800332   T   T   T
  0.7013934511935671  0.5355165082639984  0.2252290213485492   T   T   T
  0.2030705693474757  0.7850406343466967  0.2252913340974505   T   T   T
  0.4525632621521978  0.0352985915640059  0.2249818282586581   T   T   T
  0.1194697833192677  0.7016886593380178  0.1377196208045461   F   F   F
  0.7024520269114871  0.0353004848970765  0.2249502137945665   T   T   T
  0.7852526481541819  0.1193519231182277  0.3108009211705576   T   T   T
  0.5352204100384820  0.8690296061105416  0.3108218440539009   T   T   T
  0.7868336547289516  0.1183080422132221  0.0508386848136340   F   F   F
  0.5365155299928688  0.8682561142222056  0.0507168413227248   F   F   F
  0.2031816135178313  0.5354754412751046  0.2253469941112439   T   T   T
  0.9521279815189291  0.2857252795616916  0.2249937496046494   T   T   T
  0.8694806842594929  0.9517801275761713  0.1375034099181818   F   F   F
  0.7016958307314201  0.2860272054183872  0.2252480867236627   T   T   T
  0.4525026713200361  0.2860439165205683  0.2253452155120651   T   T   T
  0.8678712781333072  0.9534084215900926  0.4082215399539801   T   T   T
  0.1173111929964158  0.4534531897424471  0.4082237537688795   T   T   T
  0.1174180252016176  0.9535815779856636  0.4080817107011807   T   T   T
  0.8683112641497528  0.4534438507301179  0.4081884589756338   T   T   T
  0.3679218638572366  0.9536670429012509  0.4080811377311860   T   T   T
  0.8683282674002419  0.2027812398582700  0.4080681188742311   T   T   T
  0.1178532001806049  0.2032862678370303  0.4079058938997115   T   T   T
  0.6176033343395604  0.9533986485562019  0.4082461316396514   T   T   T
  0.8677249407241768  0.7034151750777972  0.4082859894051271   T   T   T
  0.3677799791934366  0.2028532559953280  0.4081234717342808   T   T   T
  0.3660657318494213  0.7067949745479931  0.4112685032104606   T   T   T
  0.6214720415849526  0.4513837761899105  0.4114788184508385   T   T   T
  0.1155976164657628  0.7044031080892881  0.4079511627900341   T   T   T
  0.6189296882023430  0.2011224121296668  0.4079248373161500   T   T   T
  0.3661594736084909  0.4515492505283922  0.4113131136087522   T   T   T
  0.6190080026994029  0.7044403718374904  0.4079895183592019   T   T   T
  0.4516144477526435  0.5387271848628904  0.4572201791030177   T   T   T
 
  0.00000000E+00  0.00000000E+00  0.00000000E+00
  0.00000000E+00  0.00000000E+00  0.00000000E+00
  0.00000000E+00  0.00000000E+00  0.00000000E+00
  0.00000000E+00  0.00000000E+00  0.00000000E+00
  0.00000000E+00  0.00000000E+00  0.00000000E+00
  0.00000000E+00  0.00000000E+00  0.00000000E+00
  0.00000000E+00  0.00000000E+00  0.00000000E+00
  0.00000000E+00  0.00000000E+00  0.00000000E+00
  0.00000000E+00  0.00000000E+00  0.00000000E+00
  0.00000000E+00  0.00000000E+00  0.00000000E+00
  0.00000000E+00  0.00000000E+00  0.00000000E+00
  0.00000000E+00  0.00000000E+00  0.00000000E+00
  0.00000000E+00  0.00000000E+00  0.00000000E+00
  0.00000000E+00  0.00000000E+00  0.00000000E+00
  0.00000000E+00  0.00000000E+00  0.00000000E+00
  0.00000000E+00  0.00000000E+00  0.00000000E+00
  0.00000000E+00  0.00000000E+00  0.00000000E+00
  0.00000000E+00  0.00000000E+00  0.00000000E+00
  0.00000000E+00  0.00000000E+00  0.00000000E+00
  0.00000000E+00  0.00000000E+00  0.00000000E+00
  0.00000000E+00  0.00000000E+00  0.00000000E+00
  0.00000000E+00  0.00000000E+00  0.00000000E+00
  0.00000000E+00  0.00000000E+00  0.00000000E+00
  0.00000000E+00  0.00000000E+00  0.00000000E+00
  0.00000000E+00  0.00000000E+00  0.00000000E+00
  0.00000000E+00  0.00000000E+00  0.00000000E+00
  0.00000000E+00  0.00000000E+00  0.00000000E+00
  0.00000000E+00  0.00000000E+00  0.00000000E+00
  0.00000000E+00  0.00000000E+00  0.00000000E+00
  0.00000000E+00  0.00000000E+00  0.00000000E+00
  0.00000000E+00  0.00000000E+00  0.00000000E+00
  0.00000000E+00  0.00000000E+00  0.00000000E+00
  0.00000000E+00  0.00000000E+00  0.00000000E+00
  0.00000000E+00  0.00000000E+00  0.00000000E+00
  0.00000000E+00  0.00000000E+00  0.00000000E+00
  0.00000000E+00  0.00000000E+00  0.00000000E+00
  0.00000000E+00  0.00000000E+00  0.00000000E+00
  0.00000000E+00  0.00000000E+00  0.00000000E+00
  0.00000000E+00  0.00000000E+00  0.00000000E+00
  0.00000000E+00  0.00000000E+00  0.00000000E+00
  0.00000000E+00  0.00000000E+00  0.00000000E+00
  0.00000000E+00  0.00000000E+00  0.00000000E+00
  0.00000000E+00  0.00000000E+00  0.00000000E+00
  0.00000000E+00  0.00000000E+00  0.00000000E+00
  0.00000000E+00  0.00000000E+00  0.00000000E+00
  0.00000000E+00  0.00000000E+00  0.00000000E+00
  0.00000000E+00  0.00000000E+00  0.00000000E+00
  0.00000000E+00  0.00000000E+00  0.00000000E+00
  0.00000000E+00  0.00000000E+00  0.00000000E+00
  0.00000000E+00  0.00000000E+00  0.00000000E+00
  0.00000000E+00  0.00000000E+00  0.00000000E+00
  0.00000000E+00  0.00000000E+00  0.00000000E+00
  0.00000000E+00  0.00000000E+00  0.00000000E+00
  0.00000000E+00  0.00000000E+00  0.00000000E+00
  0.00000000E+00  0.00000000E+00  0.00000000E+00
  0.00000000E+00  0.00000000E+00  0.00000000E+00
  0.00000000E+00  0.00000000E+00  0.00000000E+00
  0.00000000E+00  0.00000000E+00  0.00000000E+00
  0.00000000E+00  0.00000000E+00  0.00000000E+00
  0.00000000E+00  0.00000000E+00  0.00000000E+00
  0.00000000E+00  0.00000000E+00  0.00000000E+00
  0.00000000E+00  0.00000000E+00  0.00000000E+00
  0.00000000E+00  0.00000000E+00  0.00000000E+00
  0.00000000E+00  0.00000000E+00  0.00000000E+00
  0.00000000E+00  0.00000000E+00  0.00000000E+00
  0.00000000E+00  0.00000000E+00  0.00000000E+00
  0.00000000E+00  0.00000000E+00  0.00000000E+00
  0.00000000E+00  0.00000000E+00  0.00000000E+00
  0.00000000E+00  0.00000000E+00  0.00000000E+00
  0.00000000E+00  0.00000000E+00  0.00000000E+00
  0.00000000E+00  0.00000000E+00  0.00000000E+00
  0.00000000E+00  0.00000000E+00  0.00000000E+00
  0.00000000E+00  0.00000000E+00  0.00000000E+00
  0.00000000E+00  0.00000000E+00  0.00000000E+00
  0.00000000E+00  0.00000000E+00  0.00000000E+00
  0.00000000E+00  0.00000000E+00  0.00000000E+00
  0.00000000E+00  0.00000000E+00  0.00000000E+00
  0.00000000E+00  0.00000000E+00  0.00000000E+00
  0.00000000E+00  0.00000000E+00  0.00000000E+00
  0.00000000E+00  0.00000000E+00  0.00000000E+00
  0.00000000E+00  0.00000000E+00  0.00000000E+00
