Pt111                                   
   1.00000000000000     
    11.2227001190000006    0.0000000000000000    0.0000000000000000
     5.6113500595000003    9.7191434021000003    0.0000000000000000
     0.0000000000000000    0.0000000000000000   22.0000000000000000
   Pt   H 
    80     1
Direct
  0.7843325756706941  0.8693143095165456  0.3268887792024168
  0.0344850166148672  0.8694450522646781  0.3267797559797606
  0.0345458356798288  0.6194293924482885  0.3269245794921365
  0.7875144563867150  0.8674164971542990  0.0231892747266269
  0.0370411235990051  0.8678037683771508  0.0231900358697850
  0.0369474482862697  0.6178634182290919  0.0232750668268413
  0.6195106000989244  0.2016046695678710  0.1261991739806511
  0.3693964586470426  0.9518666656914534  0.1261895719732163
  0.0352632481642694  0.3692902276194238  0.3269230682132888
  0.0369232745762477  0.3680550880741353  0.0234439615788800
  0.8693686064594153  0.2020477622764666  0.1261483035008403
  0.9519253245717050  0.5356649468064962  0.2266660601859076
  0.2850259808418136  0.1192188554008678  0.3270839640744835
  0.5336379995196138  0.6196007922743888  0.3276431150332955
  0.2852223297991764  0.3700894497424457  0.3275344206384842
  0.2879140669675317  0.1174987321831824  0.0231056348701269
  0.5369146088332946  0.6176366624432129  0.0231390726679328
  0.2871118398797607  0.3678753273638671  0.0233688494077975
  0.6195289923784623  0.9515856917020011  0.1261277083079329
  0.7014291236294624  0.7857015968894665  0.2265697458698556
  0.8691303982413685  0.7016865123345412  0.1262823550328170
  0.6191105429042445  0.4518665039621388  0.1262216920755848
  0.2847574705832079  0.8683116836436839  0.3274860494512581
  0.2873226070008181  0.8675919141381129  0.0231856599028773
  0.6189935549373879  0.7019201889424893  0.1261230088401934
  0.2019041840148826  0.0361389595539959  0.2264171681326273
  0.8663365739233005  0.9536090224199458  0.4299579682263490
  0.1161401558937587  0.4527099459737229  0.4299701143266030
  0.1155888525005880  0.9549268346192784  0.4298550955424632
  0.8683876723346902  0.4528611606190956  0.4300272179243024
  0.3671987390127737  0.9528790624531795  0.4299527417673399
  0.8681194287377421  0.2021998536732047  0.4299336929847632
  0.1176023220517043  0.2030098943723652  0.4298871235956792
  0.6169352388074103  0.9529288946736092  0.4299994902253682
  0.8662691406961730  0.7030668345687253  0.4300937512526549
  0.3677082139711829  0.2027929980598560  0.4299266195461652
  0.3660620168983157  0.7063825247240737  0.4330116413471231
  0.6230110294882605  0.4499527976478766  0.4294540741461191
  0.1116511114835928  0.7058638377889304  0.4295164159221966
  0.6186218567772378  0.2013710617269129  0.4298192413648472
  0.5340051480177131  0.3698745598467424  0.3275598308565857
  0.5372807935523894  0.3674196018383967  0.0232217816712223
  0.5346881370048399  0.1192767707652186  0.3269021196279109
  0.5374386618884879  0.1176647985550642  0.0231944644424531
  0.8690609753396619  0.4518956239616327  0.1262445101726680
  0.1194491187220095  0.4520046515781339  0.1264143814511979
  0.0351561772159062  0.1191450134042800  0.3268370220728377
  0.0372726502753906  0.1176625165455583  0.0233357436185006
  0.1195625208462357  0.9516083385152373  0.1262327829717670
  0.3664508656730479  0.4505915057049673  0.4329059958439264
  0.4515683683793428  0.5358500399651075  0.2270012094571388
  0.6184334770147437  0.7029701583343684  0.4299495719618848
  0.3695023489240801  0.2017664076849221  0.1262821670197216
  0.1195289632362160  0.2019091119170764  0.1258413718661475
  0.9516964633703702  0.7856834197424506  0.2265355094913138
  0.7841330865269123  0.6192600254114499  0.3268077000820302
  0.2851047214499162  0.6191826405847559  0.3283162154843571
  0.7868785636964233  0.6178180482778736  0.0231318480515784
  0.2868874311721855  0.6177429369526841  0.0233929148766219
  0.3691479766555341  0.7018255960130063  0.1263146420289785
  0.3694381177575113  0.4517401504974029  0.1264018962332312
  0.2021041008392815  0.2853534484455149  0.2265232746409142
  0.7845969742807832  0.3694413042220244  0.3266580037828313
  0.7868247258473048  0.3678851572984291  0.0231457053928117
  0.9520770217242193  0.0357787120975694  0.2265153029504255
  0.4513484946938327  0.7856118556990711  0.2267728559435961
  0.7012659162219591  0.5359305930797014  0.2264830549284580
  0.2021297161649235  0.7854845571111888  0.2268133738555553
  0.4518779284623402  0.0356339003770375  0.2265933902776425
  0.1192439986414032  0.7018397107592242  0.1263951209434577
  0.7017973551456508  0.0356009755780129  0.2265378998222084
  0.7843701081897538  0.1197492079685643  0.3266728804150547
  0.5342745582347779  0.8692340634921051  0.3269852929865966
  0.7873274583372465  0.1175281872986717  0.0231236232763439
  0.5373130936327603  0.8675734379895058  0.0230880378084769
  0.2022844650339529  0.5356343762172755  0.2269045796114668
  0.9520780622106327  0.2857840873224458  0.2266384159615166
  0.8693429615905520  0.9518742515152083  0.1262199228821556
  0.7016562052445140  0.2858780924339455  0.2264396040970193
  0.4518141247649212  0.2860100484271568  0.2268373612958569
  0.3668868531575566  0.5781248036499355  0.4789674018379267
 
  0.00000000E+00  0.00000000E+00  0.00000000E+00
  0.00000000E+00  0.00000000E+00  0.00000000E+00
  0.00000000E+00  0.00000000E+00  0.00000000E+00
  0.00000000E+00  0.00000000E+00  0.00000000E+00
  0.00000000E+00  0.00000000E+00  0.00000000E+00
  0.00000000E+00  0.00000000E+00  0.00000000E+00
  0.00000000E+00  0.00000000E+00  0.00000000E+00
  0.00000000E+00  0.00000000E+00  0.00000000E+00
  0.00000000E+00  0.00000000E+00  0.00000000E+00
  0.00000000E+00  0.00000000E+00  0.00000000E+00
  0.00000000E+00  0.00000000E+00  0.00000000E+00
  0.00000000E+00  0.00000000E+00  0.00000000E+00
  0.00000000E+00  0.00000000E+00  0.00000000E+00
  0.00000000E+00  0.00000000E+00  0.00000000E+00
  0.00000000E+00  0.00000000E+00  0.00000000E+00
  0.00000000E+00  0.00000000E+00  0.00000000E+00
  0.00000000E+00  0.00000000E+00  0.00000000E+00
  0.00000000E+00  0.00000000E+00  0.00000000E+00
  0.00000000E+00  0.00000000E+00  0.00000000E+00
  0.00000000E+00  0.00000000E+00  0.00000000E+00
  0.00000000E+00  0.00000000E+00  0.00000000E+00
  0.00000000E+00  0.00000000E+00  0.00000000E+00
  0.00000000E+00  0.00000000E+00  0.00000000E+00
  0.00000000E+00  0.00000000E+00  0.00000000E+00
  0.00000000E+00  0.00000000E+00  0.00000000E+00
  0.00000000E+00  0.00000000E+00  0.00000000E+00
  0.00000000E+00  0.00000000E+00  0.00000000E+00
  0.00000000E+00  0.00000000E+00  0.00000000E+00
  0.00000000E+00  0.00000000E+00  0.00000000E+00
  0.00000000E+00  0.00000000E+00  0.00000000E+00
  0.00000000E+00  0.00000000E+00  0.00000000E+00
  0.00000000E+00  0.00000000E+00  0.00000000E+00
  0.00000000E+00  0.00000000E+00  0.00000000E+00
  0.00000000E+00  0.00000000E+00  0.00000000E+00
  0.00000000E+00  0.00000000E+00  0.00000000E+00
  0.00000000E+00  0.00000000E+00  0.00000000E+00
  0.00000000E+00  0.00000000E+00  0.00000000E+00
  0.00000000E+00  0.00000000E+00  0.00000000E+00
  0.00000000E+00  0.00000000E+00  0.00000000E+00
  0.00000000E+00  0.00000000E+00  0.00000000E+00
  0.00000000E+00  0.00000000E+00  0.00000000E+00
  0.00000000E+00  0.00000000E+00  0.00000000E+00
  0.00000000E+00  0.00000000E+00  0.00000000E+00
  0.00000000E+00  0.00000000E+00  0.00000000E+00
  0.00000000E+00  0.00000000E+00  0.00000000E+00
  0.00000000E+00  0.00000000E+00  0.00000000E+00
  0.00000000E+00  0.00000000E+00  0.00000000E+00
  0.00000000E+00  0.00000000E+00  0.00000000E+00
  0.00000000E+00  0.00000000E+00  0.00000000E+00
  0.00000000E+00  0.00000000E+00  0.00000000E+00
  0.00000000E+00  0.00000000E+00  0.00000000E+00
  0.00000000E+00  0.00000000E+00  0.00000000E+00
  0.00000000E+00  0.00000000E+00  0.00000000E+00
  0.00000000E+00  0.00000000E+00  0.00000000E+00
  0.00000000E+00  0.00000000E+00  0.00000000E+00
  0.00000000E+00  0.00000000E+00  0.00000000E+00
  0.00000000E+00  0.00000000E+00  0.00000000E+00
  0.00000000E+00  0.00000000E+00  0.00000000E+00
  0.00000000E+00  0.00000000E+00  0.00000000E+00
  0.00000000E+00  0.00000000E+00  0.00000000E+00
  0.00000000E+00  0.00000000E+00  0.00000000E+00
  0.00000000E+00  0.00000000E+00  0.00000000E+00
  0.00000000E+00  0.00000000E+00  0.00000000E+00
  0.00000000E+00  0.00000000E+00  0.00000000E+00
  0.00000000E+00  0.00000000E+00  0.00000000E+00
  0.00000000E+00  0.00000000E+00  0.00000000E+00
  0.00000000E+00  0.00000000E+00  0.00000000E+00
  0.00000000E+00  0.00000000E+00  0.00000000E+00
  0.00000000E+00  0.00000000E+00  0.00000000E+00
  0.00000000E+00  0.00000000E+00  0.00000000E+00
  0.00000000E+00  0.00000000E+00  0.00000000E+00
  0.00000000E+00  0.00000000E+00  0.00000000E+00
  0.00000000E+00  0.00000000E+00  0.00000000E+00
  0.00000000E+00  0.00000000E+00  0.00000000E+00
  0.00000000E+00  0.00000000E+00  0.00000000E+00
  0.00000000E+00  0.00000000E+00  0.00000000E+00
  0.00000000E+00  0.00000000E+00  0.00000000E+00
  0.00000000E+00  0.00000000E+00  0.00000000E+00
  0.00000000E+00  0.00000000E+00  0.00000000E+00
  0.00000000E+00  0.00000000E+00  0.00000000E+00
  0.00000000E+00  0.00000000E+00  0.00000000E+00
