Pt   H                                  
   1.00000000000000     
    11.2227001190000006    0.0000000000000000    0.0000000000000000
     5.6113500595000003    9.7191434021000003    0.0000000000000000
     0.0000000000000000    0.0000000000000000   22.0000000000000000
   Pt   H 
    80    17
Selective dynamics
Direct
  0.7854946110199492  0.8691367633669032  0.3262064056772758   F   F   F
  0.0353130348932780  0.8688391666363771  0.3265428755136384   F   F   F
  0.0354802285495381  0.6185803226548714  0.3261815256636353   F   F   F
  0.7851586088049984  0.8687801781456983  0.0214619808136334   F   F   F
  0.0351266820208593  0.8688040773094770  0.0215741289045468   F   F   F
  0.0353718144672897  0.6185727263784386  0.0214435215636328   F   F   F
  0.6185539892552470  0.2021021910506633  0.1246687398909074   F   F   F
  0.3681473493425287  0.9522402718536185  0.1248145646863605   F   F   F
  0.0353734841307940  0.3686092340530678  0.3263981092909063   F   F   F
  0.0354594129902637  0.3680679707048142  0.0214012587090906   F   F   F
  0.8685752074863302  0.2020431745945572  0.1250156064999999   F   F   F
  0.9521500866667409  0.5350320243835895  0.2247671620409122   F   F   F
  0.2850590123499614  0.1188531890732705  0.3263960079363670   F   F   F
  0.5354268266552467  0.6189316214019698  0.3261929306181841   F   F   F
  0.2847726562119277  0.3683237372160306  0.3252725438636332   F   F   F
  0.2844188594818817  0.1190133873783665  0.0214873827545432   F   F   F
  0.5350634417416984  0.6184944537397357  0.0212440863045487   F   F   F
  0.2849255898448604  0.3684358727258115  0.0212558133181844   F   F   F
  0.6184282543312776  0.9520192342980280  0.1247742967409096   F   F   F
  0.7018823651903077  0.7853872186771795  0.2247687559590901   F   F   F
  0.8684483158267042  0.7020291411613258  0.1247128506818171   F   F   F
  0.6187378963175902  0.4519706488589179  0.1246908340954533   F   F   F
  0.2862126931457993  0.8669342714481871  0.3273037811090944   F   F   F
  0.2850443897401433  0.8690293629760646  0.0214200908909064   F   F   F
  0.6183923074331830  0.7020718822222207  0.1245919220545488   F   F   F
  0.2023393666578741  0.0338452944864400  0.2258444017681853   F   F   F
  0.8691047402572352  0.9526274025342047  0.4325108448272701   F   F   F
  0.1197014911107317  0.4525305897585241  0.4322605251454519   F   F   F
  0.1187265259473591  0.9527399809019457  0.4330087692363662   F   F   F
  0.8700954750407277  0.4523729782143135  0.4323046064181852   F   F   F
  0.3688260395820535  0.9536490652249583  0.4322801406272703   F   F   F
  0.8692223399847592  0.2022514075546269  0.4329527018272756   F   F   F
  0.1189468174811452  0.2025633410938852  0.4322990640454520   F   F   F
  0.6192364628880256  0.9535808904308851  0.4321903036590911   F   F   F
  0.8698948902328070  0.7028299854310234  0.4322120175363651   F   F   F
  0.3688739792691180  0.2033024425252421  0.4322506178590899   F   F   F
  0.3700808480374320  0.7012089113972166  0.4329610356500027   F   F   F
  0.6176083568766586  0.4536921744304365  0.4330236836272761   F   F   F
  0.1196296134779544  0.7022128283574176  0.4322129331499980   F   F   F
  0.6185986334278866  0.2032563633923914  0.4322013071909083   F   F   F
  0.5350737441132196  0.3687914898061422  0.3261672083681830   F   F   F
  0.5351920347378609  0.3690685140652405  0.0213867107590886   F   F   F
  0.5350614434926868  0.1190104404931489  0.3261839776545443   F   F   F
  0.5351160482751141  0.1188000695154372  0.0214949960772728   F   F   F
  0.8687423776645105  0.4516693179412812  0.1248233997272692   F   F   F
  0.1182691868161285  0.4519711622786460  0.1245451693272699   F   F   F
  0.0352114021635472  0.1186010730380787  0.3268251978045456   F   F   F
  0.0355132114874479  0.1190508317481971  0.0217440146590917   F   F   F
  0.1184348563054201  0.9520846487562480  0.1249808717363621   F   F   F
  0.3694517342143939  0.4529866525015720  0.4302444940000001   F   F   F
  0.4518704848996080  0.5355498581053268  0.2248031132136390   F   F   F
  0.6201338963700920  0.7038096079971439  0.4308019959499987   F   F   F
  0.3684276197871412  0.2018972486583550  0.1245511900818173   F   F   F
  0.1182090755942298  0.2018491871388690  0.1255099588863615   F   F   F
  0.9518757744155053  0.7853653727293235  0.2248695403909124   F   F   F
  0.7861753775469040  0.6186703377687337  0.3260611535409126   F   F   F
  0.2851693511006488  0.6185928260509996  0.3261662671181824   F   F   F
  0.7850421481229972  0.6186444773415758  0.0216118018363645   F   F   F
  0.2856123793267855  0.6187355064336870  0.0213994436409095   F   F   F
  0.3683926193170777  0.7022845318266633  0.1246361001454517   F   F   F
  0.3683394245805758  0.4518841626774446  0.1244030689045488   F   F   F
  0.2017068821724450  0.2852151766277089  0.2247653644545480   F   F   F
  0.7834205447088323  0.3698061543595941  0.3273376579454563   F   F   F
  0.7854534455496349  0.3686278838653507  0.0214379978136350   F   F   F
  0.9517607299114275  0.0353504643553038  0.2251672588090941   F   F   F
  0.4520299822250635  0.7852426232491823  0.2248781090136376   F   F   F
  0.7017137848321369  0.5356432899194772  0.2248910956000003   F   F   F
  0.2018308449966995  0.7852180703961054  0.2250088190181785   F   F   F
  0.4514161167669783  0.0357679019865955  0.2247747398181801   F   F   F
  0.1184186530314904  0.7021708657190331  0.1246151012954542   F   F   F
  0.7018256825296163  0.0355048392356707  0.2248720112727298   F   F   F
  0.7852896665294651  0.1188725972034064  0.3265567662545479   F   F   F
  0.5351123269081342  0.8697226190811804  0.3260326702136354   F   F   F
  0.7853081961525703  0.1186847742210233  0.0216988692545428   F   F   F
  0.5351205802734427  0.8686340875550655  0.0215543060909056   F   F   F
  0.2018572434207968  0.5358076743136451  0.2245308555818184   F   F   F
  0.9503596615928700  0.2858541492761262  0.2258734685227282   F   F   F
  0.8684756412961292  0.9519553948757320  0.1248338558318167   F   F   F
  0.7017184717069682  0.2854188900331067  0.2250512384090939   F   F   F
  0.4522157718171655  0.2854692570644133  0.2245723782727254   F   F   F
  0.4554451801784722  0.5375046221019062  0.4995191263772725   T   T   T
  0.4980418709535002  0.5817086557729354  0.5075095460681844   T   T   T
  0.7117517028267812  0.5383139775023338  0.4724562398227263   F   F   F
  0.2001962766760315  0.7876384614148151  0.4731317532090884   F   F   F
  0.4544668207682250  0.7952913402769539  0.4724596394090881   F   F   F
  0.7028369365631590  0.7865669355849008  0.4726263068909091   F   F   F
  0.9528940204106817  0.7855553909668984  0.4732232037954560   F   F   F
  0.2048787525311226  0.5348898588508035  0.4726405137409060   F   F   F
  0.9532069693315961  0.5360495700242751  0.4730218110545437   F   F   F
  0.2022882884597692  0.2858978166429367  0.4730957563181803   F   F   F
  0.4512532566564644  0.2884484713945312  0.4726444598136368   F   F   F
  0.7042232938471287  0.2836162178556165  0.4730981689636380   F   F   F
  0.9515821862359175  0.2860412546129680  0.4734708392727285   F   F   F
  0.2024869981658952  0.0351966487731943  0.4734561236227250   F   F   F
  0.4524382776667224  0.0368084784943790  0.4730101728363607   F   F   F
  0.7019900349198309  0.0365533398368427  0.4732116400227255   F   F   F
  0.9522207732264576  0.0357327105725176  0.4737543595772706   F   F   F
 
  0.00000000E+00  0.00000000E+00  0.00000000E+00
  0.00000000E+00  0.00000000E+00  0.00000000E+00
  0.00000000E+00  0.00000000E+00  0.00000000E+00
  0.00000000E+00  0.00000000E+00  0.00000000E+00
  0.00000000E+00  0.00000000E+00  0.00000000E+00
  0.00000000E+00  0.00000000E+00  0.00000000E+00
  0.00000000E+00  0.00000000E+00  0.00000000E+00
  0.00000000E+00  0.00000000E+00  0.00000000E+00
  0.00000000E+00  0.00000000E+00  0.00000000E+00
  0.00000000E+00  0.00000000E+00  0.00000000E+00
  0.00000000E+00  0.00000000E+00  0.00000000E+00
  0.00000000E+00  0.00000000E+00  0.00000000E+00
  0.00000000E+00  0.00000000E+00  0.00000000E+00
  0.00000000E+00  0.00000000E+00  0.00000000E+00
  0.00000000E+00  0.00000000E+00  0.00000000E+00
  0.00000000E+00  0.00000000E+00  0.00000000E+00
  0.00000000E+00  0.00000000E+00  0.00000000E+00
  0.00000000E+00  0.00000000E+00  0.00000000E+00
  0.00000000E+00  0.00000000E+00  0.00000000E+00
  0.00000000E+00  0.00000000E+00  0.00000000E+00
  0.00000000E+00  0.00000000E+00  0.00000000E+00
  0.00000000E+00  0.00000000E+00  0.00000000E+00
  0.00000000E+00  0.00000000E+00  0.00000000E+00
  0.00000000E+00  0.00000000E+00  0.00000000E+00
  0.00000000E+00  0.00000000E+00  0.00000000E+00
  0.00000000E+00  0.00000000E+00  0.00000000E+00
  0.00000000E+00  0.00000000E+00  0.00000000E+00
  0.00000000E+00  0.00000000E+00  0.00000000E+00
  0.00000000E+00  0.00000000E+00  0.00000000E+00
  0.00000000E+00  0.00000000E+00  0.00000000E+00
  0.00000000E+00  0.00000000E+00  0.00000000E+00
  0.00000000E+00  0.00000000E+00  0.00000000E+00
  0.00000000E+00  0.00000000E+00  0.00000000E+00
  0.00000000E+00  0.00000000E+00  0.00000000E+00
  0.00000000E+00  0.00000000E+00  0.00000000E+00
  0.00000000E+00  0.00000000E+00  0.00000000E+00
  0.00000000E+00  0.00000000E+00  0.00000000E+00
  0.00000000E+00  0.00000000E+00  0.00000000E+00
  0.00000000E+00  0.00000000E+00  0.00000000E+00
  0.00000000E+00  0.00000000E+00  0.00000000E+00
  0.00000000E+00  0.00000000E+00  0.00000000E+00
  0.00000000E+00  0.00000000E+00  0.00000000E+00
  0.00000000E+00  0.00000000E+00  0.00000000E+00
  0.00000000E+00  0.00000000E+00  0.00000000E+00
  0.00000000E+00  0.00000000E+00  0.00000000E+00
  0.00000000E+00  0.00000000E+00  0.00000000E+00
  0.00000000E+00  0.00000000E+00  0.00000000E+00
  0.00000000E+00  0.00000000E+00  0.00000000E+00
  0.00000000E+00  0.00000000E+00  0.00000000E+00
  0.00000000E+00  0.00000000E+00  0.00000000E+00
  0.00000000E+00  0.00000000E+00  0.00000000E+00
  0.00000000E+00  0.00000000E+00  0.00000000E+00
  0.00000000E+00  0.00000000E+00  0.00000000E+00
  0.00000000E+00  0.00000000E+00  0.00000000E+00
  0.00000000E+00  0.00000000E+00  0.00000000E+00
  0.00000000E+00  0.00000000E+00  0.00000000E+00
  0.00000000E+00  0.00000000E+00  0.00000000E+00
  0.00000000E+00  0.00000000E+00  0.00000000E+00
  0.00000000E+00  0.00000000E+00  0.00000000E+00
  0.00000000E+00  0.00000000E+00  0.00000000E+00
  0.00000000E+00  0.00000000E+00  0.00000000E+00
  0.00000000E+00  0.00000000E+00  0.00000000E+00
  0.00000000E+00  0.00000000E+00  0.00000000E+00
  0.00000000E+00  0.00000000E+00  0.00000000E+00
  0.00000000E+00  0.00000000E+00  0.00000000E+00
  0.00000000E+00  0.00000000E+00  0.00000000E+00
  0.00000000E+00  0.00000000E+00  0.00000000E+00
  0.00000000E+00  0.00000000E+00  0.00000000E+00
  0.00000000E+00  0.00000000E+00  0.00000000E+00
  0.00000000E+00  0.00000000E+00  0.00000000E+00
  0.00000000E+00  0.00000000E+00  0.00000000E+00
  0.00000000E+00  0.00000000E+00  0.00000000E+00
  0.00000000E+00  0.00000000E+00  0.00000000E+00
  0.00000000E+00  0.00000000E+00  0.00000000E+00
  0.00000000E+00  0.00000000E+00  0.00000000E+00
  0.00000000E+00  0.00000000E+00  0.00000000E+00
  0.00000000E+00  0.00000000E+00  0.00000000E+00
  0.00000000E+00  0.00000000E+00  0.00000000E+00
  0.00000000E+00  0.00000000E+00  0.00000000E+00
  0.00000000E+00  0.00000000E+00  0.00000000E+00
  0.00000000E+00  0.00000000E+00  0.00000000E+00
  0.00000000E+00  0.00000000E+00  0.00000000E+00
  0.00000000E+00  0.00000000E+00  0.00000000E+00
  0.00000000E+00  0.00000000E+00  0.00000000E+00
  0.00000000E+00  0.00000000E+00  0.00000000E+00
  0.00000000E+00  0.00000000E+00  0.00000000E+00
  0.00000000E+00  0.00000000E+00  0.00000000E+00
  0.00000000E+00  0.00000000E+00  0.00000000E+00
  0.00000000E+00  0.00000000E+00  0.00000000E+00
  0.00000000E+00  0.00000000E+00  0.00000000E+00
  0.00000000E+00  0.00000000E+00  0.00000000E+00
  0.00000000E+00  0.00000000E+00  0.00000000E+00
  0.00000000E+00  0.00000000E+00  0.00000000E+00
  0.00000000E+00  0.00000000E+00  0.00000000E+00
  0.00000000E+00  0.00000000E+00  0.00000000E+00
  0.00000000E+00  0.00000000E+00  0.00000000E+00
  0.00000000E+00  0.00000000E+00  0.00000000E+00
