10.86                                   
   1.00000000000000     
    10.8599996566999994    0.0000000000000000    0.0000000000000000
     5.4299998282999997    9.4050355878000005    0.0000000000000000
     0.0000000000000000    0.0000000000000000   22.0000000000000000
   Pt   Fe   Co   Cu   Ni
    32    13    10    13    12
Direct
  0.7848116422954551  0.8800786317968744  0.3151115080047178
  0.0425921801840455  0.8817583541797630  0.3126591697118358
  0.2787561923594483  0.3813386468780161  0.3170317278237603
  0.8739677630026557  0.9631363621159044  0.4179619892451511
  0.1192845005701788  0.4641601619713126  0.4220881854513621
  0.1247237966419216  0.9614708134165029  0.4169539013421298
  0.8743139411807236  0.4587320668548068  0.4215689866627795
  0.3735376899077695  0.9601043511774772  0.4167117342260646
  0.8732368562781396  0.2110458089428273  0.4159246321494306
  0.1255436787962849  0.2119423838651240  0.4179261403971207
  0.6239032399599834  0.9602791822058944  0.4189522897748154
  0.8734303251444401  0.7115043080242079  0.4216367183319424
  0.3743467867033615  0.2087487059878834  0.4195127136370797
  0.3756159273415300  0.7128506381149036  0.4189159996974594
  0.6255101922649630  0.4620822299133908  0.4180334773200363
  0.1231291556055597  0.7109344092928376  0.4211224206485376
  0.6242316307074653  0.2103534129179243  0.4172670837669750
  0.5473293852022214  0.3763300822650228  0.3153452144443862
  0.5331492580934123  0.1253688728530659  0.3128144786068451
  0.5483883292916557  0.1233734725312310  0.0461674633452042
  0.1189763218455432  0.4584087287110468  0.1298649037983761
  0.0447405570938632  0.1356549830214647  0.3126342037333104
  0.0406657298292943  0.1314986331423222  0.0367327973454765
  0.1309549378523465  0.9578912708627334  0.1339264883781879
  0.3736087766244799  0.4613053899138436  0.4207493818744019
  0.4556522333883611  0.5480667654325533  0.2186221383266596
  0.6218811531634223  0.7115480813630465  0.4194146239518762
  0.9546323180142894  0.7862445906964912  0.2204777234029389
  0.7954215236883267  0.6234246189784721  0.3177847363262095
  0.2901268599179733  0.6314959156259546  0.3162849455245867
  0.2002708624348625  0.2770478458572648  0.2260251504055440
  0.7045829241518594  0.5516321129954505  0.2208851499948407
  0.0403403285110071  0.6324971846591724  0.3226960029804981
  0.7955110030438721  0.8609512276387118  0.0480385122276876
  0.0573949397823948  0.8629365884375473  0.0426982104689125
  0.0458753864312566  0.6317424305994535  0.0425419417447297
  0.6283988685921452  0.2264175371307921  0.1318427956085558
  0.3823587953950882  0.9533284287239528  0.1319694655712374
  0.0348052182281789  0.3845172506370272  0.3222475822742032
  0.0268079723622518  0.3797381930330223  0.0416316377158549
  0.8723791053664127  0.2158092365480466  0.1307545436721548
  0.9547024218515886  0.5436382700218179  0.2244670324341496
  0.2977435020274959  0.1150942074694201  0.3197284608198210
  0.5406364201001438  0.6280687416357381  0.3203862949579352
  0.2945049926010885  0.1170356248423919  0.0441488403706630
  0.5519685040998658  0.6240663073846432  0.0467109319266482
  0.2960777314507482  0.3827352514912890  0.0441011896604720
  0.6249515703997101  0.9461887287680252  0.1346385474074347
  0.7073007629441537  0.7919560005841347  0.2206980387758982
  0.8641642368891143  0.7014903972803536  0.1310198486940533
  0.6284097325743299  0.4565427356930787  0.1288810116493224
  0.2968076541172142  0.8744509882971206  0.3174756829459535
  0.3034084821986731  0.8750332447789049  0.0436180695049797
  0.6263955126519605  0.7168699604049468  0.1294389879523258
  0.2282460863334360  0.0251927252995619  0.2279743672293824
  0.5411956631997611  0.3786938250565063  0.0386404366094656
  0.3758860748220457  0.2062408198137158  0.1355179188177924
  0.1391045929577601  0.7049881574788495  0.1351065841383302
  0.7043988531745037  0.0514063915852651  0.2204906319813193
  0.7926505977972638  0.1291568653928595  0.3152259548213148
  0.5385082469751074  0.8724320800761093  0.3161928211449320
  0.7963472328289483  0.1231574992082276  0.0392939661591679
  0.5440945193922823  0.8759385405971148  0.0392459096704055
  0.2079024299016082  0.5431036366127623  0.2237859261288114
  0.9489325326262117  0.3007508570331103  0.2224478204320935
  0.8725112496270773  0.9655798376333756  0.1316447751214288
  0.7171476949216633  0.2914481447393119  0.2245606244918214
  0.4567330680052740  0.2945848388480069  0.2213046886476439
  0.8750294207418121  0.4572868458843672  0.1300096086714117
  0.1269801392191399  0.2054284542975692  0.1306704091096940
  0.7957063935878311  0.6202328764949265  0.0430280211036615
  0.2938692617795199  0.6266274624955942  0.0463221184927608
  0.3850310216745222  0.7148852913221784  0.1298736746977425
  0.3816718202408635  0.4522385150745776  0.1290563122109864
  0.7922084870071089  0.3820410872613601  0.3192814048769666
  0.7947937720698874  0.3739039784493723  0.0430364376643236
  0.9546170343474260  0.0559472075309228  0.2217931839280483
  0.4595337134009224  0.7957272121714957  0.2251697936627192
  0.2181471024013496  0.7973202649200354  0.2249219835918926
  0.4610829538121516  0.0274880027576037  0.2232129655823626
 
  0.00000000E+00  0.00000000E+00  0.00000000E+00
  0.00000000E+00  0.00000000E+00  0.00000000E+00
  0.00000000E+00  0.00000000E+00  0.00000000E+00
  0.00000000E+00  0.00000000E+00  0.00000000E+00
  0.00000000E+00  0.00000000E+00  0.00000000E+00
  0.00000000E+00  0.00000000E+00  0.00000000E+00
  0.00000000E+00  0.00000000E+00  0.00000000E+00
  0.00000000E+00  0.00000000E+00  0.00000000E+00
  0.00000000E+00  0.00000000E+00  0.00000000E+00
  0.00000000E+00  0.00000000E+00  0.00000000E+00
  0.00000000E+00  0.00000000E+00  0.00000000E+00
  0.00000000E+00  0.00000000E+00  0.00000000E+00
  0.00000000E+00  0.00000000E+00  0.00000000E+00
  0.00000000E+00  0.00000000E+00  0.00000000E+00
  0.00000000E+00  0.00000000E+00  0.00000000E+00
  0.00000000E+00  0.00000000E+00  0.00000000E+00
  0.00000000E+00  0.00000000E+00  0.00000000E+00
  0.00000000E+00  0.00000000E+00  0.00000000E+00
  0.00000000E+00  0.00000000E+00  0.00000000E+00
  0.00000000E+00  0.00000000E+00  0.00000000E+00
  0.00000000E+00  0.00000000E+00  0.00000000E+00
  0.00000000E+00  0.00000000E+00  0.00000000E+00
  0.00000000E+00  0.00000000E+00  0.00000000E+00
  0.00000000E+00  0.00000000E+00  0.00000000E+00
  0.00000000E+00  0.00000000E+00  0.00000000E+00
  0.00000000E+00  0.00000000E+00  0.00000000E+00
  0.00000000E+00  0.00000000E+00  0.00000000E+00
  0.00000000E+00  0.00000000E+00  0.00000000E+00
  0.00000000E+00  0.00000000E+00  0.00000000E+00
  0.00000000E+00  0.00000000E+00  0.00000000E+00
  0.00000000E+00  0.00000000E+00  0.00000000E+00
  0.00000000E+00  0.00000000E+00  0.00000000E+00
  0.00000000E+00  0.00000000E+00  0.00000000E+00
  0.00000000E+00  0.00000000E+00  0.00000000E+00
  0.00000000E+00  0.00000000E+00  0.00000000E+00
  0.00000000E+00  0.00000000E+00  0.00000000E+00
  0.00000000E+00  0.00000000E+00  0.00000000E+00
  0.00000000E+00  0.00000000E+00  0.00000000E+00
  0.00000000E+00  0.00000000E+00  0.00000000E+00
  0.00000000E+00  0.00000000E+00  0.00000000E+00
  0.00000000E+00  0.00000000E+00  0.00000000E+00
  0.00000000E+00  0.00000000E+00  0.00000000E+00
  0.00000000E+00  0.00000000E+00  0.00000000E+00
  0.00000000E+00  0.00000000E+00  0.00000000E+00
  0.00000000E+00  0.00000000E+00  0.00000000E+00
  0.00000000E+00  0.00000000E+00  0.00000000E+00
  0.00000000E+00  0.00000000E+00  0.00000000E+00
  0.00000000E+00  0.00000000E+00  0.00000000E+00
  0.00000000E+00  0.00000000E+00  0.00000000E+00
  0.00000000E+00  0.00000000E+00  0.00000000E+00
  0.00000000E+00  0.00000000E+00  0.00000000E+00
  0.00000000E+00  0.00000000E+00  0.00000000E+00
  0.00000000E+00  0.00000000E+00  0.00000000E+00
  0.00000000E+00  0.00000000E+00  0.00000000E+00
  0.00000000E+00  0.00000000E+00  0.00000000E+00
  0.00000000E+00  0.00000000E+00  0.00000000E+00
  0.00000000E+00  0.00000000E+00  0.00000000E+00
  0.00000000E+00  0.00000000E+00  0.00000000E+00
  0.00000000E+00  0.00000000E+00  0.00000000E+00
  0.00000000E+00  0.00000000E+00  0.00000000E+00
  0.00000000E+00  0.00000000E+00  0.00000000E+00
  0.00000000E+00  0.00000000E+00  0.00000000E+00
  0.00000000E+00  0.00000000E+00  0.00000000E+00
  0.00000000E+00  0.00000000E+00  0.00000000E+00
  0.00000000E+00  0.00000000E+00  0.00000000E+00
  0.00000000E+00  0.00000000E+00  0.00000000E+00
  0.00000000E+00  0.00000000E+00  0.00000000E+00
  0.00000000E+00  0.00000000E+00  0.00000000E+00
  0.00000000E+00  0.00000000E+00  0.00000000E+00
  0.00000000E+00  0.00000000E+00  0.00000000E+00
  0.00000000E+00  0.00000000E+00  0.00000000E+00
  0.00000000E+00  0.00000000E+00  0.00000000E+00
  0.00000000E+00  0.00000000E+00  0.00000000E+00
  0.00000000E+00  0.00000000E+00  0.00000000E+00
  0.00000000E+00  0.00000000E+00  0.00000000E+00
  0.00000000E+00  0.00000000E+00  0.00000000E+00
  0.00000000E+00  0.00000000E+00  0.00000000E+00
  0.00000000E+00  0.00000000E+00  0.00000000E+00
  0.00000000E+00  0.00000000E+00  0.00000000E+00
  0.00000000E+00  0.00000000E+00  0.00000000E+00
