Pt111                                   
   1.00000000000000     
    11.2227001190000006    0.0000000000000000    0.0000000000000000
     5.6113500595000003    9.7191434021000003    0.0000000000000000
     0.0000000000000000    0.0000000000000000   22.0000000000000000
   Pt   H 
    80     1
Direct
  0.7847286947496005  0.8692931238117182  0.3270030255168326
  0.0346983090646316  0.8692819972310728  0.3269621572128537
  0.0347762803320271  0.6190923065395098  0.3267356728042001
  0.7870206572746907  0.8678269555713962  0.0229172434495031
  0.0366637937820286  0.8681839883250794  0.0229393699641172
  0.0367743125816537  0.6181827168186964  0.0229421773925441
  0.6193252339370723  0.2016159640923829  0.1261067017545353
  0.3695127299652735  0.9513522428121366  0.1260509036772672
  0.0348016875281043  0.3693032165448840  0.3267218481460325
  0.0367515315826759  0.3678314826668024  0.0230255145715251
  0.8694011142153908  0.2017095397400855  0.1260158835536109
  0.9515781254594291  0.5358555986766169  0.2263629694230583
  0.2846811955263600  0.1194190140639332  0.3267082988532762
  0.5346658235947545  0.6192596284824461  0.3278781370860844
  0.2846704501287564  0.3692962679433897  0.3267512091860035
  0.2870563814671765  0.1177280612726442  0.0230237733706882
  0.5367371354285113  0.6178760656732342  0.0231503081181325
  0.2867120196853993  0.3681011315430786  0.0230139535906073
  0.6193393623969117  0.9519273201729253  0.1260682415210790
  0.7016943345319686  0.7854434486723579  0.2265732127006411
  0.8694029704318968  0.7019075561735998  0.1260877194765822
  0.6193022547831433  0.4518114584887929  0.1261247586785541
  0.2849684194932376  0.8690388879857673  0.3272274107296563
  0.2867504116071402  0.8678252162168929  0.0229738120352001
  0.6191717450483591  0.7018397505054629  0.1261003287049938
  0.2020347004237164  0.0353580596279372  0.2263473340473998
  0.8675729640191023  0.9528902449682449  0.4301074385658741
  0.1175049864563306  0.4530074615124743  0.4301935488710260
  0.1165673063801179  0.9535653665116527  0.4299953271389308
  0.8711292910082049  0.4510483783780338  0.4296398764195662
  0.3654495420567145  0.9564637495880254  0.4296349617779629
  0.8682599075757144  0.2023238811655224  0.4300386949735178
  0.1175481569195578  0.2029587143254309  0.4301412828684689
  0.6174782706792322  0.9536724866924450  0.4299587785850666
  0.8678823633154346  0.7029565069235738  0.4300126702253225
  0.3675858729936466  0.2028275911518085  0.4301562180113013
  0.3625322515065926  0.7054652946126178  0.4317523499157518
  0.6198090480322793  0.4481049639583304  0.4317507757853943
  0.1165666116101153  0.7028105522336890  0.4300392056239935
  0.6173772980032401  0.2022537823868381  0.4299702354271646
  0.5346315273017731  0.3696775231517699  0.3272451438470009
  0.5372400053344801  0.3674961430109198  0.0229283544424560
  0.5345928732423749  0.1193734847362683  0.3266791138979420
  0.5372241979476344  0.1177746352333405  0.0229003684831112
  0.8688394300275022  0.4520616220643859  0.1260627027783600
  0.1192109324203126  0.4519673244791011  0.1259450954867784
  0.0348189528549525  0.1193272439456515  0.3267553123044534
  0.0368552225784906  0.1176445678044671  0.0228607383059335
  0.1190703359859531  0.9519992851233817  0.1261028579463297
  0.3655865173354638  0.4512801983555424  0.4296971618665552
  0.4519762142247347  0.5357769273135000  0.2266674402569998
  0.6198043229877817  0.7050306467122056  0.4316813268849013
  0.3694134663169468  0.2017906801700146  0.1259139561145706
  0.1191996480055389  0.2017279656452900  0.1259172623193180
  0.9519391900129260  0.7855830946338133  0.2265537390292415
  0.7843767455794627  0.6192332229138139  0.3272337443509046
  0.2849676751229292  0.6193266518882661  0.3272892758138014
  0.7868440243638313  0.6180718847360342  0.0229765284229608
  0.2867398787020916  0.6179226939839196  0.0229546700439222
  0.3692603750320130  0.7018228296777019  0.1261560855330518
  0.3695948755644141  0.4519927687636326  0.1260265243806299
  0.2019457104780314  0.2856289110795770  0.2264107931874340
  0.7843262889928063  0.3696201124502538  0.3272463255496861
  0.7869450938967772  0.3679098819803301  0.0229151933317539
  0.9518563690696332  0.0357639506038185  0.2265521211751384
  0.4520520543720366  0.7854799064609134  0.2266735115715052
  0.7016740318159691  0.5357553596803669  0.2266461192323145
  0.2022742574252043  0.7854603474132534  0.2265924991496137
  0.4520816431890340  0.0353187219274939  0.2263508849416144
  0.1190443946503653  0.7020014559516493  0.1260681519457313
  0.7018264087061544  0.0356617557789389  0.2265579768364149
  0.7847366026733704  0.1193145243023249  0.3270299875242191
  0.5346938106516985  0.8690253091110197  0.3272982436681441
  0.7868460917692998  0.1178550021987085  0.0229037734687293
  0.5370325900575758  0.8680193165813299  0.0229216559818833
  0.2020994640847016  0.5358775173464948  0.2263547000488311
  0.9515925753165513  0.2857229143246672  0.2263441706774919
  0.8692129219386794  0.9518586051763908  0.1260463019121718
  0.7017622082622539  0.2859271835734724  0.2265619119325083
  0.4520529346379984  0.2857957899591385  0.2263478498693048
  0.5334633014940829  0.6193341446952940  0.4690771417319521
 
  0.00000000E+00  0.00000000E+00  0.00000000E+00
  0.00000000E+00  0.00000000E+00  0.00000000E+00
  0.00000000E+00  0.00000000E+00  0.00000000E+00
  0.00000000E+00  0.00000000E+00  0.00000000E+00
  0.00000000E+00  0.00000000E+00  0.00000000E+00
  0.00000000E+00  0.00000000E+00  0.00000000E+00
  0.00000000E+00  0.00000000E+00  0.00000000E+00
  0.00000000E+00  0.00000000E+00  0.00000000E+00
  0.00000000E+00  0.00000000E+00  0.00000000E+00
  0.00000000E+00  0.00000000E+00  0.00000000E+00
  0.00000000E+00  0.00000000E+00  0.00000000E+00
  0.00000000E+00  0.00000000E+00  0.00000000E+00
  0.00000000E+00  0.00000000E+00  0.00000000E+00
  0.00000000E+00  0.00000000E+00  0.00000000E+00
  0.00000000E+00  0.00000000E+00  0.00000000E+00
  0.00000000E+00  0.00000000E+00  0.00000000E+00
  0.00000000E+00  0.00000000E+00  0.00000000E+00
  0.00000000E+00  0.00000000E+00  0.00000000E+00
  0.00000000E+00  0.00000000E+00  0.00000000E+00
  0.00000000E+00  0.00000000E+00  0.00000000E+00
  0.00000000E+00  0.00000000E+00  0.00000000E+00
  0.00000000E+00  0.00000000E+00  0.00000000E+00
  0.00000000E+00  0.00000000E+00  0.00000000E+00
  0.00000000E+00  0.00000000E+00  0.00000000E+00
  0.00000000E+00  0.00000000E+00  0.00000000E+00
  0.00000000E+00  0.00000000E+00  0.00000000E+00
  0.00000000E+00  0.00000000E+00  0.00000000E+00
  0.00000000E+00  0.00000000E+00  0.00000000E+00
  0.00000000E+00  0.00000000E+00  0.00000000E+00
  0.00000000E+00  0.00000000E+00  0.00000000E+00
  0.00000000E+00  0.00000000E+00  0.00000000E+00
  0.00000000E+00  0.00000000E+00  0.00000000E+00
  0.00000000E+00  0.00000000E+00  0.00000000E+00
  0.00000000E+00  0.00000000E+00  0.00000000E+00
  0.00000000E+00  0.00000000E+00  0.00000000E+00
  0.00000000E+00  0.00000000E+00  0.00000000E+00
  0.00000000E+00  0.00000000E+00  0.00000000E+00
  0.00000000E+00  0.00000000E+00  0.00000000E+00
  0.00000000E+00  0.00000000E+00  0.00000000E+00
  0.00000000E+00  0.00000000E+00  0.00000000E+00
  0.00000000E+00  0.00000000E+00  0.00000000E+00
  0.00000000E+00  0.00000000E+00  0.00000000E+00
  0.00000000E+00  0.00000000E+00  0.00000000E+00
  0.00000000E+00  0.00000000E+00  0.00000000E+00
  0.00000000E+00  0.00000000E+00  0.00000000E+00
  0.00000000E+00  0.00000000E+00  0.00000000E+00
  0.00000000E+00  0.00000000E+00  0.00000000E+00
  0.00000000E+00  0.00000000E+00  0.00000000E+00
  0.00000000E+00  0.00000000E+00  0.00000000E+00
  0.00000000E+00  0.00000000E+00  0.00000000E+00
  0.00000000E+00  0.00000000E+00  0.00000000E+00
  0.00000000E+00  0.00000000E+00  0.00000000E+00
  0.00000000E+00  0.00000000E+00  0.00000000E+00
  0.00000000E+00  0.00000000E+00  0.00000000E+00
  0.00000000E+00  0.00000000E+00  0.00000000E+00
  0.00000000E+00  0.00000000E+00  0.00000000E+00
  0.00000000E+00  0.00000000E+00  0.00000000E+00
  0.00000000E+00  0.00000000E+00  0.00000000E+00
  0.00000000E+00  0.00000000E+00  0.00000000E+00
  0.00000000E+00  0.00000000E+00  0.00000000E+00
  0.00000000E+00  0.00000000E+00  0.00000000E+00
  0.00000000E+00  0.00000000E+00  0.00000000E+00
  0.00000000E+00  0.00000000E+00  0.00000000E+00
  0.00000000E+00  0.00000000E+00  0.00000000E+00
  0.00000000E+00  0.00000000E+00  0.00000000E+00
  0.00000000E+00  0.00000000E+00  0.00000000E+00
  0.00000000E+00  0.00000000E+00  0.00000000E+00
  0.00000000E+00  0.00000000E+00  0.00000000E+00
  0.00000000E+00  0.00000000E+00  0.00000000E+00
  0.00000000E+00  0.00000000E+00  0.00000000E+00
  0.00000000E+00  0.00000000E+00  0.00000000E+00
  0.00000000E+00  0.00000000E+00  0.00000000E+00
  0.00000000E+00  0.00000000E+00  0.00000000E+00
  0.00000000E+00  0.00000000E+00  0.00000000E+00
  0.00000000E+00  0.00000000E+00  0.00000000E+00
  0.00000000E+00  0.00000000E+00  0.00000000E+00
  0.00000000E+00  0.00000000E+00  0.00000000E+00
  0.00000000E+00  0.00000000E+00  0.00000000E+00
  0.00000000E+00  0.00000000E+00  0.00000000E+00
  0.00000000E+00  0.00000000E+00  0.00000000E+00
  0.00000000E+00  0.00000000E+00  0.00000000E+00
