Pt   H                                  
   1.00000000000000     
    11.2227001190000006    0.0000000000000000    0.0000000000000000
     5.6113500595000003    9.7191434021000003    0.0000000000000000
     0.0000000000000000    0.0000000000000000   22.0000000000000000
   Pt   H 
    80    17
Direct
  0.7851612080774366  0.8694924436730090  0.3257500175488126
  0.0350719706040230  0.8694479577029224  0.3257407428660984
  0.0350755845514326  0.6195518533159038  0.3257226245083542
  0.7851370287129298  0.8692098147045705  0.0204227785842150
  0.0348791374933556  0.8691168353939689  0.0206848714210141
  0.0348959228812905  0.6194305424719398  0.0206761958431769
  0.6184885688182946  0.2024655826954840  0.1238436260781922
  0.3683723289233238  0.9527967587148545  0.1238468129862847
  0.0353595664122311  0.3694166388487051  0.3258886494060884
  0.0353960914448277  0.3685680314328841  0.0208529290472143
  0.8685892399357921  0.2025129523242719  0.1238840230905022
  0.9518332717162857  0.5360013645344945  0.2242315735241963
  0.2851536017014421  0.1195700758810237  0.3258972258503972
  0.5354687628664885  0.6198345436385159  0.3245198002526998
  0.2846157793810147  0.3688091988422820  0.3250787440318765
  0.2844303809692543  0.1195811733591883  0.0208264649010333
  0.5351835675620966  0.6190370205895152  0.0205539567941171
  0.2851155391125932  0.3691703495170479  0.0205520520273913
  0.6184961942547824  0.9525863424203384  0.1239336876052178
  0.7018834499326068  0.7860882082257956  0.2241050506828466
  0.8684503971328211  0.7026870595455021  0.1239597887848639
  0.6187141776207801  0.4524497628705960  0.1236721099721738
  0.2845152011905847  0.8707927009370119  0.3249960236463103
  0.2851254757099678  0.8691733317903736  0.0205439344722025
  0.6184864987884806  0.7027006516596425  0.1238112280728757
  0.2020092945458804  0.0356686862223443  0.2243179596397603
  0.8687732332543728  0.9529151515147281  0.4317044265690265
  0.1194044980241776  0.4531328740870720  0.4316676500033657
  0.1193653972314994  0.9520890363975955  0.4316819593507820
  0.8680911335138844  0.4529165124007621  0.4315723618034708
  0.3688398549879635  0.9520966358212957  0.4315682723112298
  0.8679632237945599  0.2033936894178348  0.4316542942372407
  0.1186678316466817  0.2029011821360231  0.4318359257678047
  0.6184541987757348  0.9531199888723929  0.4317071826873718
  0.8687576711560635  0.7027415955038465  0.4316832676204472
  0.3687481760779223  0.2036209021410810  0.4316741210437616
  0.3705421872761007  0.6990201892565280  0.4287488094356115
  0.6150465576035389  0.4546073562114915  0.4285012484754215
  0.1207502866306918  0.7018590311603974  0.4318250646450609
  0.6175442335200534  0.2049689104060828  0.4317829691186722
  0.5352607966966887  0.3687952478882051  0.3246389212198590
  0.5351648594283476  0.3691267699445669  0.0205468050707840
  0.5353095682492800  0.1192379411382086  0.3257059242434292
  0.5353665209844939  0.1189140438399483  0.0206761378070932
  0.8686099798528824  0.4525200787396680  0.1238504162824953
  0.1183366608755288  0.4526428544154769  0.1238723387360422
  0.0352535382546653  0.1194115094245831  0.3259067411095690
  0.0354656949874145  0.1194917313745669  0.0209065117146451
  0.1183260126535562  0.9527475789632180  0.1238900303281394
  0.3707218409412295  0.4549392246954878  0.4292870896973068
  0.4518126451694937  0.5360394365761567  0.2234998930218994
  0.6177281642929813  0.7018988304540198  0.4314595749981484
  0.3684528671117964  0.2025574454607123  0.1238615654021757
  0.1184600038577093  0.2026722501093864  0.1246538390631548
  0.9517085767157399  0.7860742602515434  0.2241839485894734
  0.7853716911535261  0.6195440118757760  0.3256377914434612
  0.2845735175239060  0.6196338971870876  0.3246822784618312
  0.7850933310414894  0.6195550626835442  0.0206826324079210
  0.2850636572797013  0.6192703552017550  0.0205256106398516
  0.3683219810251819  0.7028965054719625  0.1236606403527432
  0.3683316280278439  0.4525082724838327  0.1236546742818275
  0.2020416208486674  0.2861957710858642  0.2242744212484903
  0.7865136204893914  0.3687682902396210  0.3249656882375071
  0.7851056924707777  0.3691570848468071  0.0205442058047956
  0.9517807267425237  0.0360295339924876  0.2242969458062767
  0.4520735938300046  0.7860298606654113  0.2238698649923644
  0.7017744475355333  0.5362593687469628  0.2238351794877467
  0.2016051121547295  0.7859796895323062  0.2238716548896138
  0.4517521514984791  0.0361231568894203  0.2242073990402653
  0.1182775246641650  0.7027017648407404  0.1238511876604293
  0.7018484909556219  0.0358901105719862  0.2241396697951135
  0.7851807718566297  0.1192729848427320  0.3257342033473172
  0.5353048512761134  0.8696301938067382  0.3256401325486699
  0.7851067312872129  0.1188655697168334  0.0206928239815316
  0.5353052087854038  0.8690836196386017  0.0206779763786889
  0.2016293370612259  0.5362618445627901  0.2239017166550299
  0.9514316773713383  0.2862178866351557  0.2243720284112561
  0.8684593760183577  0.9525387040659522  0.1239941695805965
  0.7018190188728761  0.2857347953376254  0.2238653782916939
  0.4520861638543583  0.2858974369699486  0.2239240119987095
  0.4694904684922595  0.5372435778804980  0.5456077853264918
  0.5106575426650728  0.5528654786056552  0.5681381687289243
  0.7011514361185935  0.5357409965827148  0.4712717222220543
  0.2053498397616531  0.7841567603255466  0.4716465288388547
  0.4510691869433660  0.7841683410379543  0.4713945161953785
  0.7015843996528617  0.7860076748791659  0.4719859233093282
  0.9525291921594848  0.7858780582992375  0.4721268883935814
  0.2060104513021923  0.5348973405321759  0.4718487585758886
  0.9520523653253481  0.5364656821113120  0.4722869855554608
  0.2021351259371524  0.2864655908626580  0.4725270091707184
  0.4505870026498661  0.2902694282103943  0.4718233018888823
  0.7007127129241592  0.2883090841022927  0.4715265160293474
  0.9514072515891053  0.2864459442500699  0.4725443821596189
  0.2022933536514885  0.0357357917090249  0.4725129066583627
  0.4521910179478800  0.0361721007313700  0.4722921147271939
  0.7016780653556862  0.0367891751669138  0.4721156104541972
  0.9519751959469264  0.0359189582630645  0.4723409516169663
 
             NaN             NaN             NaN
             NaN             NaN             NaN
             NaN             NaN             NaN
             NaN             NaN             NaN
             NaN             NaN             NaN
             NaN             NaN             NaN
             NaN             NaN             NaN
             NaN             NaN             NaN
             NaN             NaN             NaN
             NaN             NaN             NaN
             NaN             NaN             NaN
             NaN             NaN             NaN
             NaN             NaN             NaN
             NaN             NaN             NaN
             NaN             NaN             NaN
             NaN             NaN             NaN
             NaN             NaN             NaN
             NaN             NaN             NaN
             NaN             NaN             NaN
             NaN             NaN             NaN
             NaN             NaN             NaN
             NaN             NaN             NaN
             NaN             NaN             NaN
             NaN             NaN             NaN
             NaN             NaN             NaN
             NaN             NaN             NaN
             NaN             NaN             NaN
             NaN             NaN             NaN
             NaN             NaN             NaN
             NaN             NaN             NaN
             NaN             NaN             NaN
             NaN             NaN             NaN
             NaN             NaN             NaN
             NaN             NaN             NaN
             NaN             NaN             NaN
             NaN             NaN             NaN
             NaN             NaN             NaN
             NaN             NaN             NaN
             NaN             NaN             NaN
             NaN             NaN             NaN
             NaN             NaN             NaN
             NaN             NaN             NaN
             NaN             NaN             NaN
             NaN             NaN             NaN
             NaN             NaN             NaN
             NaN             NaN             NaN
             NaN             NaN             NaN
             NaN             NaN             NaN
             NaN             NaN             NaN
             NaN             NaN             NaN
             NaN             NaN             NaN
             NaN             NaN             NaN
             NaN             NaN             NaN
             NaN             NaN             NaN
             NaN             NaN             NaN
             NaN             NaN             NaN
             NaN             NaN             NaN
             NaN             NaN             NaN
             NaN             NaN             NaN
             NaN             NaN             NaN
             NaN             NaN             NaN
             NaN             NaN             NaN
             NaN             NaN             NaN
             NaN             NaN             NaN
             NaN             NaN             NaN
             NaN             NaN             NaN
             NaN             NaN             NaN
             NaN             NaN             NaN
             NaN             NaN             NaN
             NaN             NaN             NaN
             NaN             NaN             NaN
             NaN             NaN             NaN
             NaN             NaN             NaN
             NaN             NaN             NaN
             NaN             NaN             NaN
             NaN             NaN             NaN
             NaN             NaN             NaN
             NaN             NaN             NaN
             NaN             NaN             NaN
             NaN             NaN             NaN
             NaN             NaN             NaN
             NaN             NaN             NaN
             NaN             NaN             NaN
             NaN             NaN             NaN
             NaN             NaN             NaN
             NaN             NaN             NaN
             NaN             NaN             NaN
             NaN             NaN             NaN
             NaN             NaN             NaN
             NaN             NaN             NaN
             NaN             NaN             NaN
             NaN             NaN             NaN
             NaN             NaN             NaN
             NaN             NaN             NaN
             NaN             NaN             NaN
             NaN             NaN             NaN
             NaN             NaN             NaN
