Pt111                                   
   1.00000000000000     
    11.2227001190000006    0.0000000000000000    0.0000000000000000
     5.6113500595000003    9.7191434021000003    0.0000000000000000
     0.0000000000000000    0.0000000000000000   22.0000000000000000
   Pt   H 
    80     1
Selective dynamics
Direct
  0.7846508015851725  0.8692834995596925  0.3270659661181838   F   F   F
  0.0347476032490519  0.8694410887665427  0.3267684585499993   F   F   F
  0.0346938322817323  0.6190355635971017  0.3268300239272719   F   F   F
  0.7870904476242515  0.8677401033179279  0.0231204056909107   F   F   F
  0.0366434800398636  0.8681520654461039  0.0229970031954565   F   F   F
  0.0368136582621403  0.6179460760196562  0.0230356685500013   F   F   F
  0.6193869536634864  0.2016757553733086  0.1261810109636343   F   F   F
  0.3695994866510333  0.9514682072703948  0.1260496402454550   F   F   F
  0.0349264026839151  0.3690335996302991  0.3267203182499969   F   F   F
  0.0366789800188556  0.3681719326136133  0.0230107046045447   F   F   F
  0.8690377515058998  0.2018938181091201  0.1259804125545472   F   F   F
  0.9518782581547285  0.5356052187557196  0.2264764239818149   F   F   F
  0.2843506192415077  0.1195155164959303  0.3267045129636372   F   F   F
  0.5343928566906015  0.6191044216612624  0.3278669454863632   F   F   F
  0.2847527644765080  0.3693862760913973  0.3271409013454516   F   F   F
  0.2874880973925542  0.1175873793623694  0.0230098501818148   F   F   F
  0.5367630336444975  0.6178076029624791  0.0230757948954547   F   F   F
  0.2868262338876306  0.3681003555855540  0.0230094362863653   F   F   F
  0.6192699114955360  0.9518092872362800  0.1261414064545434   F   F   F
  0.7016917352973806  0.7854710151463067  0.2265829820136389   F   F   F
  0.8692942218096249  0.7018038605671961  0.1261761974227298   F   F   F
  0.6190247356263185  0.4519043059752548  0.1261612129818204   F   F   F
  0.2847287198226383  0.8691548523170027  0.3270877119863655   F   F   F
  0.2870321862769387  0.8675973440599734  0.0230003136227239   F   F   F
  0.6192122158834437  0.7018873326661748  0.1261253994681795   F   F   F
  0.2018621833856002  0.0357459850962698  0.2261980980409106   F   F   F
  0.8675108753576524  0.9528584403743849  0.4301744632999984   F   F   F
  0.1164513682237498  0.4530172967865340  0.4300355088090910   F   F   F
  0.1162160924826026  0.9539242794171301  0.4299321149999997   F   F   F
  0.8687050313182922  0.4527578023130303  0.4299584696000025   F   F   F
  0.3671243313122474  0.9541232737440950  0.4299781825590898   F   F   F
  0.8685061952146356  0.2019837693593303  0.4299505663272711   F   F   F
  0.1174637786583261  0.2030118697984946  0.4300744658272748   F   F   F
  0.6175188832751886  0.9529032425325568  0.4301906457409075   F   F   F
  0.8671331952507160  0.7030587338410470  0.4302576934000015   F   F   F
  0.3675148657681646  0.2017707719361681  0.4299888194636381   F   F   F
  0.3643683687433423  0.7090104711091172  0.4314453912318186   F   F   F
  0.6233621593253318  0.4498037014615335  0.4313791954363637   F   F   F
  0.1135475443315599  0.7046819268784716  0.4297667602409092   F   F   F
  0.6191669241815845  0.1991626641995765  0.4297058522181842   F   F   F
  0.5343742689875342  0.3697371479490243  0.3278691142772701   F   F   F
  0.5371815983407302  0.3676043223652883  0.0230338902999989   F   F   F
  0.5344731468077129  0.1192947150722645  0.3267634312045473   F   F   F
  0.5371443848557576  0.1177160671950546  0.0229913622818216   F   F   F
  0.8689651949986796  0.4520932141252914  0.1260682116454532   F   F   F
  0.1193194507587805  0.4521216744935117  0.1260990037090934   F   F   F
  0.0348538770282687  0.1194706486529569  0.3267371195227255   F   F   F
  0.0369003797524101  0.1176078515266070  0.0229273105000019   F   F   F
  0.1193242419242395  0.9515461349301404  0.1260660678136389   F   F   F
  0.3643345141867371  0.4500252330730063  0.4315259149136352   F   F   F
  0.4518552425003577  0.5356819248571938  0.2269813751999976   F   F   F
  0.6192180648938859  0.7047730377884918  0.4297284810818169   F   F   F
  0.3695938038075610  0.2019243308495646  0.1260661068318214   F   F   F
  0.1193404032423260  0.2018120052613099  0.1254385915954543   F   F   F
  0.9520752160036778  0.7855532456749543  0.2265864044772741   F   F   F
  0.7847789061483326  0.6190315792541980  0.3268282589636371   F   F   F
  0.2849687908861398  0.6191593793954908  0.3279033594909109   F   F   F
  0.7868501521957967  0.6180633509123936  0.0230302163090883   F   F   F
  0.2869037378572941  0.6178205688376366  0.0230561382318157   F   F   F
  0.3693125760793592  0.7015583722354322  0.1261953476409090   F   F   F
  0.3694973707559441  0.4519140061408038  0.1261632829227253   F   F   F
  0.2019321584583835  0.2856290224712765  0.2262187431545470   F   F   F
  0.7844223185887671  0.3694692779534563  0.3270866626363613   F   F   F
  0.7867651633386217  0.3680720444588843  0.0229550161363647   F   F   F
  0.9518691333548688  0.0358000872509834  0.2264468573727285   F   F   F
  0.4517470931523846  0.7853396618626718  0.2265909577999992   F   F   F
  0.7015033001747071  0.5355801798824444  0.2265768338045433   F   F   F
  0.2023305243190805  0.7853051949568766  0.2265961141999995   F   F   F
  0.4517690997259649  0.0356959339055578  0.2264576621409091   F   F   F
  0.1190867718701512  0.7020062206228772  0.1261582660727285   F   F   F
  0.7017988657447063  0.0358587311536809  0.2265814191363660   F   F   F
  0.7847941221452714  0.1194643322732674  0.3268220085545437   F   F   F
  0.5343674452593348  0.8695283790106458  0.3268513183090889   F   F   F
  0.7869516461316195  0.1177127060346521  0.0229514336500003   F   F   F
  0.5371474802365981  0.8679549995606948  0.0229778257636397   F   F   F
  0.2023629216172580  0.5355227711194601  0.2266065896363614   F   F   F
  0.9519805314332075  0.2856059040347319  0.2261963416409074   F   F   F
  0.8692652806160268  0.9518694988285787  0.1261608114499992   F   F   F
  0.7016100615738807  0.2860508226475247  0.2265582386681828   F   F   F
  0.4517189259919547  0.2861324928387319  0.2265971149863617   F   F   F
  0.4510737602148964  0.5364243000955753  0.4671640948363625   T   T   T
 
  0.00000000E+00  0.00000000E+00  0.00000000E+00
  0.00000000E+00  0.00000000E+00  0.00000000E+00
  0.00000000E+00  0.00000000E+00  0.00000000E+00
  0.00000000E+00  0.00000000E+00  0.00000000E+00
  0.00000000E+00  0.00000000E+00  0.00000000E+00
  0.00000000E+00  0.00000000E+00  0.00000000E+00
  0.00000000E+00  0.00000000E+00  0.00000000E+00
  0.00000000E+00  0.00000000E+00  0.00000000E+00
  0.00000000E+00  0.00000000E+00  0.00000000E+00
  0.00000000E+00  0.00000000E+00  0.00000000E+00
  0.00000000E+00  0.00000000E+00  0.00000000E+00
  0.00000000E+00  0.00000000E+00  0.00000000E+00
  0.00000000E+00  0.00000000E+00  0.00000000E+00
  0.00000000E+00  0.00000000E+00  0.00000000E+00
  0.00000000E+00  0.00000000E+00  0.00000000E+00
  0.00000000E+00  0.00000000E+00  0.00000000E+00
  0.00000000E+00  0.00000000E+00  0.00000000E+00
  0.00000000E+00  0.00000000E+00  0.00000000E+00
  0.00000000E+00  0.00000000E+00  0.00000000E+00
  0.00000000E+00  0.00000000E+00  0.00000000E+00
  0.00000000E+00  0.00000000E+00  0.00000000E+00
  0.00000000E+00  0.00000000E+00  0.00000000E+00
  0.00000000E+00  0.00000000E+00  0.00000000E+00
  0.00000000E+00  0.00000000E+00  0.00000000E+00
  0.00000000E+00  0.00000000E+00  0.00000000E+00
  0.00000000E+00  0.00000000E+00  0.00000000E+00
  0.00000000E+00  0.00000000E+00  0.00000000E+00
  0.00000000E+00  0.00000000E+00  0.00000000E+00
  0.00000000E+00  0.00000000E+00  0.00000000E+00
  0.00000000E+00  0.00000000E+00  0.00000000E+00
  0.00000000E+00  0.00000000E+00  0.00000000E+00
  0.00000000E+00  0.00000000E+00  0.00000000E+00
  0.00000000E+00  0.00000000E+00  0.00000000E+00
  0.00000000E+00  0.00000000E+00  0.00000000E+00
  0.00000000E+00  0.00000000E+00  0.00000000E+00
  0.00000000E+00  0.00000000E+00  0.00000000E+00
  0.00000000E+00  0.00000000E+00  0.00000000E+00
  0.00000000E+00  0.00000000E+00  0.00000000E+00
  0.00000000E+00  0.00000000E+00  0.00000000E+00
  0.00000000E+00  0.00000000E+00  0.00000000E+00
  0.00000000E+00  0.00000000E+00  0.00000000E+00
  0.00000000E+00  0.00000000E+00  0.00000000E+00
  0.00000000E+00  0.00000000E+00  0.00000000E+00
  0.00000000E+00  0.00000000E+00  0.00000000E+00
  0.00000000E+00  0.00000000E+00  0.00000000E+00
  0.00000000E+00  0.00000000E+00  0.00000000E+00
  0.00000000E+00  0.00000000E+00  0.00000000E+00
  0.00000000E+00  0.00000000E+00  0.00000000E+00
  0.00000000E+00  0.00000000E+00  0.00000000E+00
  0.00000000E+00  0.00000000E+00  0.00000000E+00
  0.00000000E+00  0.00000000E+00  0.00000000E+00
  0.00000000E+00  0.00000000E+00  0.00000000E+00
  0.00000000E+00  0.00000000E+00  0.00000000E+00
  0.00000000E+00  0.00000000E+00  0.00000000E+00
  0.00000000E+00  0.00000000E+00  0.00000000E+00
  0.00000000E+00  0.00000000E+00  0.00000000E+00
  0.00000000E+00  0.00000000E+00  0.00000000E+00
  0.00000000E+00  0.00000000E+00  0.00000000E+00
  0.00000000E+00  0.00000000E+00  0.00000000E+00
  0.00000000E+00  0.00000000E+00  0.00000000E+00
  0.00000000E+00  0.00000000E+00  0.00000000E+00
  0.00000000E+00  0.00000000E+00  0.00000000E+00
  0.00000000E+00  0.00000000E+00  0.00000000E+00
  0.00000000E+00  0.00000000E+00  0.00000000E+00
  0.00000000E+00  0.00000000E+00  0.00000000E+00
  0.00000000E+00  0.00000000E+00  0.00000000E+00
  0.00000000E+00  0.00000000E+00  0.00000000E+00
  0.00000000E+00  0.00000000E+00  0.00000000E+00
  0.00000000E+00  0.00000000E+00  0.00000000E+00
  0.00000000E+00  0.00000000E+00  0.00000000E+00
  0.00000000E+00  0.00000000E+00  0.00000000E+00
  0.00000000E+00  0.00000000E+00  0.00000000E+00
  0.00000000E+00  0.00000000E+00  0.00000000E+00
  0.00000000E+00  0.00000000E+00  0.00000000E+00
  0.00000000E+00  0.00000000E+00  0.00000000E+00
  0.00000000E+00  0.00000000E+00  0.00000000E+00
  0.00000000E+00  0.00000000E+00  0.00000000E+00
  0.00000000E+00  0.00000000E+00  0.00000000E+00
  0.00000000E+00  0.00000000E+00  0.00000000E+00
  0.00000000E+00  0.00000000E+00  0.00000000E+00
  0.00000000E+00  0.00000000E+00  0.00000000E+00
