Pt   Fe   Co   Cu   Ni   H              
   1.00000000000000     
    11.2227001190000006    0.0000000000000000    0.0000000000000000
     5.6113500595000003    9.7191434021000003    0.0000000000000000
     0.0000000000000000    0.0000000000000000   22.0000000000000000
   Pt   Fe   Co   Cu   Ni   H 
    32    13    10    13    12     2
Selective dynamics
Direct
  0.7843014930573402  0.8722654583858996  0.3044619404320010   T   T   T
  0.0365443146080627  0.8760603451705021  0.3036775467104790   T   T   T
  0.2774130183523956  0.3625894335380098  0.3141071172110396   T   T   T
  0.8668956144358593  0.9551109371320379  0.4065506495453491   T   T   T
  0.1082509694088060  0.4643857391821781  0.4126474631339251   T   T   T
  0.1226452266714170  0.9531059058946536  0.4208839086756948   T   T   T
  0.8713765413749767  0.4491914994295884  0.4162262885892294   T   T   T
  0.3768803934574069  0.9507615254856663  0.4144447970690591   T   T   T
  0.8698669871309969  0.2040507603426284  0.4133600898351737   T   T   T
  0.1269982270984706  0.2109739363915274  0.4130657619047955   T   T   T
  0.6251445855703690  0.9481303658150729  0.4111291848387904   T   T   T
  0.8691722997458735  0.7082630378760897  0.4124191659895168   T   T   T
  0.3775995127635772  0.1954777483341803  0.4151114206718510   T   T   T
  0.3682970918363759  0.7045239326705713  0.4079194189660423   T   T   T
  0.6234932862433354  0.4511817242189305  0.4114355678415887   T   T   T
  0.1172604685766721  0.7032114375198403  0.4109143683687583   T   T   T
  0.6226361222191111  0.2046555400520895  0.4097455724218038   T   T   T
  0.5358864408841147  0.3724088327718807  0.3099585410708608   T   T   T
  0.5318297500521693  0.1163303974654158  0.3112766288099097   T   T   T
  0.5569226188755110  0.1086708656929360  0.0592961979909106   F   F   F
  0.0930745014782630  0.4259856488078384  0.1229365454818208   F   F   F
  0.0504154441466446  0.1207940680441603  0.3126840051446700   T   T   T
  0.0235476180177372  0.1116837216400626  0.0415554665318183   F   F   F
  0.1293428954640135  0.9475379252774658  0.1410218874318190   F   F   F
  0.3668250528165581  0.4532741777999059  0.4118836492451468   T   T   T
  0.4463733127121827  0.5590599617993064  0.2201686420090923   F   F   F
  0.6175925194480739  0.7001106989506864  0.4127173517211936   T   T   T
  0.9496412988475953  0.7566142239563121  0.2091809507181850   F   F   F
  0.7946659324202234  0.6146906292563521  0.3156857701522651   T   T   T
  0.2700369362223985  0.6184599020017153  0.3087533099753013   T   T   T
  0.1891672861307754  0.2657704220046710  0.2250055169318159   F   F   F
  0.6933157080343193  0.5494170253055657  0.2213121226772756   F   F   F
  0.0317268680942629  0.6271870643160915  0.3139510201739398   T   T   T
  0.7908976721677661  0.8607398451588253  0.0643550995272761   F   F   F
  0.0497744387680896  0.8515179213645325  0.0563143962045487   F   F   F
  0.0482691984141681  0.6404573579452517  0.0664752515863611   F   F   F
  0.6277707382687936  0.2312090485478890  0.1342846206409121   F   F   F
  0.3782172184191310  0.9483996770135477  0.1357048643863621   F   F   F
  0.0282622614375234  0.3762766726302705  0.3194135653153723   T   T   T
  0.9804591417191091  0.3557507153514052  0.0436524654181838   F   F   F
  0.8640049941009735  0.2076928001868836  0.1340350911636392   F   F   F
  0.9451399085370085  0.5266535011813929  0.2211150897863661   F   F   F
  0.2965324171963230  0.1084457416255084  0.3200674294553750   T   T   T
  0.5385228716400706  0.6165344956512309  0.3188308840458715   T   T   T
  0.2731123853233228  0.0985488070371545  0.0516987688636377   F   F   F
  0.5334473651308755  0.6203591302189508  0.0498930076045454   F   F   F
  0.2770995757786139  0.4215163844804266  0.0587340680727237   F   F   F
  0.6210554875665082  0.9270430545096389  0.1407946278545467   F   F   F
  0.7025641402416909  0.7747404709218557  0.2204396092954539   F   F   F
  0.8411225825284063  0.6704695058714734  0.1300022238272760   F   F   F
  0.6105486174653407  0.4610934769139945  0.1309991407090934   F   F   F
  0.2970769061225162  0.8807682102958559  0.3191103766331327   T   T   T
  0.2940362362996041  0.8760797686409489  0.0475515383727299   F   F   F
  0.6041934999629675  0.7158029702079318  0.1307821798045481   F   F   F
  0.2360731343730578  0.0174466072764545  0.2280154387772697   F   F   F
  0.5242744956851624  0.3792912181235550  0.0425614798636360   F   F   F
  0.3551744787353499  0.2076428621234214  0.1336254578909077   F   F   F
  0.1731039612630880  0.6910893229282635  0.1515240298045484   F   F   F
  0.6923909364538048  0.0568688020675339  0.2191301533863665   F   F   F
  0.7869628677427808  0.1276551684679491  0.3119473634368488   T   T   T
  0.5399092492408137  0.8671990080114811  0.3157299605639850   T   T   T
  0.7883185831952346  0.1103053582652507  0.0446684269954574   F   F   F
  0.5334963982674452  0.8779383385532000  0.0444767040636336   F   F   F
  0.1956673589336688  0.5076262213739966  0.2180563182363642   F   F   F
  0.9389271056883146  0.2975856390981022  0.2254350185045482   F   F   F
  0.8699442896834526  0.9728939451039409  0.1405358531681813   F   F   F
  0.7122658308791756  0.2953772504045702  0.2257043105318175   F   F   F
  0.4508133290681684  0.2778763517489082  0.2206428684818178   F   F   F
  0.8520537964486579  0.4351961425516251  0.1324833155681802   F   F   F
  0.1113962825649395  0.1869968796949024  0.1345737873590878   F   F   F
  0.7644304487144638  0.5913785966938292  0.0471152797272723   F   F   F
  0.2998235260282129  0.6241094473397055  0.0562708154227280   F   F   F
  0.3800882668218932  0.7239098677029290  0.1343728076227251   F   F   F
  0.3936821377214841  0.4392606579894220  0.1380873863636367   F   F   F
  0.7863259748241362  0.3791572363841398  0.3180396346611146   T   T   T
  0.7666413314546432  0.3542370531291965  0.0467139270818180   F   F   F
  0.9442228821784298  0.0677696185198471  0.2233989054818153   F   F   F
  0.4628237781163875  0.7941129895493049  0.2276203148272700   F   F   F
  0.2363871684906798  0.7979533000741910  0.2316199022272727   F   F   F
  0.4553361678960712  0.0262284913447104  0.2236937692727281   F   F   F
  0.0042016978002216  0.0739749252370595  0.4690186938972368   T   T   T
  0.1627763636433398  0.9314408111906083  0.4909180708815493   T   T   T
 
  0.00000000E+00  0.00000000E+00  0.00000000E+00
  0.00000000E+00  0.00000000E+00  0.00000000E+00
  0.00000000E+00  0.00000000E+00  0.00000000E+00
  0.00000000E+00  0.00000000E+00  0.00000000E+00
  0.00000000E+00  0.00000000E+00  0.00000000E+00
  0.00000000E+00  0.00000000E+00  0.00000000E+00
  0.00000000E+00  0.00000000E+00  0.00000000E+00
  0.00000000E+00  0.00000000E+00  0.00000000E+00
  0.00000000E+00  0.00000000E+00  0.00000000E+00
  0.00000000E+00  0.00000000E+00  0.00000000E+00
  0.00000000E+00  0.00000000E+00  0.00000000E+00
  0.00000000E+00  0.00000000E+00  0.00000000E+00
  0.00000000E+00  0.00000000E+00  0.00000000E+00
  0.00000000E+00  0.00000000E+00  0.00000000E+00
  0.00000000E+00  0.00000000E+00  0.00000000E+00
  0.00000000E+00  0.00000000E+00  0.00000000E+00
  0.00000000E+00  0.00000000E+00  0.00000000E+00
  0.00000000E+00  0.00000000E+00  0.00000000E+00
  0.00000000E+00  0.00000000E+00  0.00000000E+00
  0.00000000E+00  0.00000000E+00  0.00000000E+00
  0.00000000E+00  0.00000000E+00  0.00000000E+00
  0.00000000E+00  0.00000000E+00  0.00000000E+00
  0.00000000E+00  0.00000000E+00  0.00000000E+00
  0.00000000E+00  0.00000000E+00  0.00000000E+00
  0.00000000E+00  0.00000000E+00  0.00000000E+00
  0.00000000E+00  0.00000000E+00  0.00000000E+00
  0.00000000E+00  0.00000000E+00  0.00000000E+00
  0.00000000E+00  0.00000000E+00  0.00000000E+00
  0.00000000E+00  0.00000000E+00  0.00000000E+00
  0.00000000E+00  0.00000000E+00  0.00000000E+00
  0.00000000E+00  0.00000000E+00  0.00000000E+00
  0.00000000E+00  0.00000000E+00  0.00000000E+00
  0.00000000E+00  0.00000000E+00  0.00000000E+00
  0.00000000E+00  0.00000000E+00  0.00000000E+00
  0.00000000E+00  0.00000000E+00  0.00000000E+00
  0.00000000E+00  0.00000000E+00  0.00000000E+00
  0.00000000E+00  0.00000000E+00  0.00000000E+00
  0.00000000E+00  0.00000000E+00  0.00000000E+00
  0.00000000E+00  0.00000000E+00  0.00000000E+00
  0.00000000E+00  0.00000000E+00  0.00000000E+00
  0.00000000E+00  0.00000000E+00  0.00000000E+00
  0.00000000E+00  0.00000000E+00  0.00000000E+00
  0.00000000E+00  0.00000000E+00  0.00000000E+00
  0.00000000E+00  0.00000000E+00  0.00000000E+00
  0.00000000E+00  0.00000000E+00  0.00000000E+00
  0.00000000E+00  0.00000000E+00  0.00000000E+00
  0.00000000E+00  0.00000000E+00  0.00000000E+00
  0.00000000E+00  0.00000000E+00  0.00000000E+00
  0.00000000E+00  0.00000000E+00  0.00000000E+00
  0.00000000E+00  0.00000000E+00  0.00000000E+00
  0.00000000E+00  0.00000000E+00  0.00000000E+00
  0.00000000E+00  0.00000000E+00  0.00000000E+00
  0.00000000E+00  0.00000000E+00  0.00000000E+00
  0.00000000E+00  0.00000000E+00  0.00000000E+00
  0.00000000E+00  0.00000000E+00  0.00000000E+00
  0.00000000E+00  0.00000000E+00  0.00000000E+00
  0.00000000E+00  0.00000000E+00  0.00000000E+00
  0.00000000E+00  0.00000000E+00  0.00000000E+00
  0.00000000E+00  0.00000000E+00  0.00000000E+00
  0.00000000E+00  0.00000000E+00  0.00000000E+00
  0.00000000E+00  0.00000000E+00  0.00000000E+00
  0.00000000E+00  0.00000000E+00  0.00000000E+00
  0.00000000E+00  0.00000000E+00  0.00000000E+00
  0.00000000E+00  0.00000000E+00  0.00000000E+00
  0.00000000E+00  0.00000000E+00  0.00000000E+00
  0.00000000E+00  0.00000000E+00  0.00000000E+00
  0.00000000E+00  0.00000000E+00  0.00000000E+00
  0.00000000E+00  0.00000000E+00  0.00000000E+00
  0.00000000E+00  0.00000000E+00  0.00000000E+00
  0.00000000E+00  0.00000000E+00  0.00000000E+00
  0.00000000E+00  0.00000000E+00  0.00000000E+00
  0.00000000E+00  0.00000000E+00  0.00000000E+00
  0.00000000E+00  0.00000000E+00  0.00000000E+00
  0.00000000E+00  0.00000000E+00  0.00000000E+00
  0.00000000E+00  0.00000000E+00  0.00000000E+00
  0.00000000E+00  0.00000000E+00  0.00000000E+00
  0.00000000E+00  0.00000000E+00  0.00000000E+00
  0.00000000E+00  0.00000000E+00  0.00000000E+00
  0.00000000E+00  0.00000000E+00  0.00000000E+00
  0.00000000E+00  0.00000000E+00  0.00000000E+00
  0.00000000E+00  0.00000000E+00  0.00000000E+00
  0.00000000E+00  0.00000000E+00  0.00000000E+00
