11.26-high                              
   1.00000000000000     
    11.2227001190000006    0.0000000000000000    0.0000000000000000
     5.6113500595000003    9.7191434021000003    0.0000000000000000
     0.0000000000000000    0.0000000000000000   22.0000000000000000
   Pt   Fe   Co   Cu   Ni   H 
    42    10     9    10     9     1
Selective dynamics
Direct
  0.7756514144157366  0.8699564227546138  0.3145461581035121   T   T   T
  0.0372676735580656  0.8693973488237166  0.3163390706613817   T   T   T
  0.0363307994727483  0.6173946622745181  0.3130832118628032   T   T   T
  0.0281728418996943  0.3711184920725641  0.3187762036331243   T   T   T
  0.2898143493282653  0.1061591684738878  0.3184655317594269   T   T   T
  0.2869461390775324  0.3675065153845211  0.3170532648497105   T   T   T
  0.8603830678044062  0.6885467750536591  0.1253156462500016   F   F   F
  0.8606908206184587  0.9554290079853170  0.4160857897771824   T   T   T
  0.1149780540716904  0.4561120088136171  0.4191823682267687   T   T   T
  0.1237823267452337  0.9527997373172269  0.4195438092246626   T   T   T
  0.8699152963660484  0.4488183854515064  0.4206610720087263   T   T   T
  0.3745115581429658  0.9467945065990566  0.4184184338021603   T   T   T
  0.8656103764417006  0.2052573571207042  0.4158071692154147   T   T   T
  0.1196573945147698  0.2010371985230154  0.4200240227199252   T   T   T
  0.6193218126375420  0.9457662849882309  0.4179378249642370   T   T   T
  0.8665228540827862  0.7030950728028423  0.4196929393778983   T   T   T
  0.3722468277564058  0.1966810531117106  0.4198261922823546   T   T   T
  0.3778160919217328  0.7029376144954946  0.4174427333865545   T   T   T
  0.6217779171793324  0.4563351316837216  0.4193218577614898   T   T   T
  0.1148689299839555  0.6988582376724702  0.4209252737209840   T   T   T
  0.6187368775055597  0.2062585134238179  0.4170118959105614   T   T   T
  0.5409135973741570  0.3766297587130797  0.3174391265086078   T   T   T
  0.5315267549574095  0.1212514362117192  0.3165304542321046   T   T   T
  0.5442019006228733  0.1201914845034153  0.0504434484681795   F   F   F
  0.1142405163196329  0.4386075722968457  0.1234050769590880   F   F   F
  0.0389226506606828  0.1141489432214566  0.3160905306383772   T   T   T
  0.0243253264458687  0.1323668837134377  0.0369015360272726   F   F   F
  0.1152134814866699  0.9584880216488187  0.1297927210409071   F   F   F
  0.3681253677152285  0.4506094173016306  0.4193595574797007   T   T   T
  0.4557435896217541  0.5396524899372039  0.2213525035863668   F   F   F
  0.6189328430271809  0.7004526131947845  0.4207073033804119   T   T   T
  0.9410139446931112  0.7905655189880036  0.2179142421045484   F   F   F
  0.7801846824490017  0.6223909555931921  0.3179444694615105   T   T   T
  0.2888335448659230  0.6210980782459183  0.3183764041089616   T   T   T
  0.3768126017729969  0.7090882968360077  0.1223311202272725   F   F   F
  0.1980441227920124  0.2771285427188985  0.2229871410590931   F   F   F
  0.6939540916241498  0.5484393539196333  0.2221168207409079   F   F   F
  0.2107683324880867  0.7918799648369301  0.2236131327318205   F   F   F
  0.4557418254902501  0.0164923155846566  0.2206410286909062   F   F   F
  0.6862860921415930  0.0468873908889478  0.2147227927181845   F   F   F
  0.7845806241555746  0.1214245340005469  0.3129737033043469   T   T   T
  0.9434930917077722  0.2857924509272962  0.2215890749863618   F   F   F
  0.7867857272291658  0.8821680795189693  0.0488070628545429   F   F   F
  0.0358623303006738  0.8507121037450176  0.0465431883590881   F   F   F
  0.0481229290084855  0.6302962965930092  0.0439644148227245   F   F   F
  0.6209494190243205  0.2256219229594052  0.1323573148454571   F   F   F
  0.3709421952700751  0.9443970530280268  0.1313032974227255   F   F   F
  0.9936099268667462  0.3719789771410120  0.0447934889863646   F   F   F
  0.8631642533399813  0.2122395306827443  0.1308509258409103   F   F   F
  0.9463297029474802  0.5321554723827262  0.2240115982681843   F   F   F
  0.5369027596983695  0.6190603542380894  0.3226801710129621   T   T   T
  0.2942496729187951  0.1094640347697862  0.0502411027818184   F   F   F
  0.5652370767781534  0.5964757606259212  0.0467385234636382   F   F   F
  0.3035354273760760  0.3837712234901360  0.0499963786545479   F   F   F
  0.6277578011989107  0.9236075517169979  0.1303932065727267   F   F   F
  0.6989168430191057  0.7800059105684127  0.2225661840045490   F   F   F
  0.6222664635151602  0.4485233850092314  0.1314846070363629   F   F   F
  0.2886221528914305  0.8664582053226888  0.3200059551297939   T   T   T
  0.2792035565351938  0.9034454831176575  0.0410961363181812   F   F   F
  0.6143503406269275  0.7101301790452794  0.1300746441954530   F   F   F
  0.2165096431681519  0.0224182010065732  0.2257764199409067   F   F   F
  0.5361482883496507  0.3764256073029557  0.0401335441090893   F   F   F
  0.3702343115390931  0.2105192803882190  0.1365703187000022   F   F   F
  0.1326484000424202  0.6896726429153901  0.1374850507500014   F   F   F
  0.5355805659274872  0.8577196438067567  0.3185099327134317   T   T   T
  0.7841087454784841  0.1257091519028322  0.0403582594772729   F   F   F
  0.5329206264284778  0.8661142146417120  0.0408235199181846   F   F   F
  0.2106888119822869  0.5229193255242919  0.2214641484136379   F   F   F
  0.8693192534775847  0.9736660002521731  0.1323443272500029   F   F   F
  0.7050605033612314  0.2914274399005166  0.2245332657363619   F   F   F
  0.4533111685043210  0.2946908516218798  0.2235118708227262   F   F   F
  0.8556987306866617  0.4497894098625466  0.1313302277681814   F   F   F
  0.1273694145296886  0.1919494531582799  0.1306615633954564   F   F   F
  0.7725967245697234  0.5982079950527108  0.0420667780727300   F   F   F
  0.2752698282785886  0.6127388501452984  0.0463555859136378   F   F   F
  0.3852170713906986  0.4500455704928612  0.1318572647090903   F   F   F
  0.7773399878751628  0.3803804629921843  0.3196569066472178   T   T   T
  0.7757829137447203  0.3655372166679172  0.0436342522727244   F   F   F
  0.9538253258237788  0.0428579507644642  0.2228099709181848   F   F   F
  0.4551161067616150  0.7837870906559559  0.2271676499863631   F   F   F
  0.1355871909941004  0.8175258311502297  0.4638884744313399   T   T   T
 
  0.00000000E+00  0.00000000E+00  0.00000000E+00
  0.00000000E+00  0.00000000E+00  0.00000000E+00
  0.00000000E+00  0.00000000E+00  0.00000000E+00
  0.00000000E+00  0.00000000E+00  0.00000000E+00
  0.00000000E+00  0.00000000E+00  0.00000000E+00
  0.00000000E+00  0.00000000E+00  0.00000000E+00
  0.00000000E+00  0.00000000E+00  0.00000000E+00
  0.00000000E+00  0.00000000E+00  0.00000000E+00
  0.00000000E+00  0.00000000E+00  0.00000000E+00
  0.00000000E+00  0.00000000E+00  0.00000000E+00
  0.00000000E+00  0.00000000E+00  0.00000000E+00
  0.00000000E+00  0.00000000E+00  0.00000000E+00
  0.00000000E+00  0.00000000E+00  0.00000000E+00
  0.00000000E+00  0.00000000E+00  0.00000000E+00
  0.00000000E+00  0.00000000E+00  0.00000000E+00
  0.00000000E+00  0.00000000E+00  0.00000000E+00
  0.00000000E+00  0.00000000E+00  0.00000000E+00
  0.00000000E+00  0.00000000E+00  0.00000000E+00
  0.00000000E+00  0.00000000E+00  0.00000000E+00
  0.00000000E+00  0.00000000E+00  0.00000000E+00
  0.00000000E+00  0.00000000E+00  0.00000000E+00
  0.00000000E+00  0.00000000E+00  0.00000000E+00
  0.00000000E+00  0.00000000E+00  0.00000000E+00
  0.00000000E+00  0.00000000E+00  0.00000000E+00
  0.00000000E+00  0.00000000E+00  0.00000000E+00
  0.00000000E+00  0.00000000E+00  0.00000000E+00
  0.00000000E+00  0.00000000E+00  0.00000000E+00
  0.00000000E+00  0.00000000E+00  0.00000000E+00
  0.00000000E+00  0.00000000E+00  0.00000000E+00
  0.00000000E+00  0.00000000E+00  0.00000000E+00
  0.00000000E+00  0.00000000E+00  0.00000000E+00
  0.00000000E+00  0.00000000E+00  0.00000000E+00
  0.00000000E+00  0.00000000E+00  0.00000000E+00
  0.00000000E+00  0.00000000E+00  0.00000000E+00
  0.00000000E+00  0.00000000E+00  0.00000000E+00
  0.00000000E+00  0.00000000E+00  0.00000000E+00
  0.00000000E+00  0.00000000E+00  0.00000000E+00
  0.00000000E+00  0.00000000E+00  0.00000000E+00
  0.00000000E+00  0.00000000E+00  0.00000000E+00
  0.00000000E+00  0.00000000E+00  0.00000000E+00
  0.00000000E+00  0.00000000E+00  0.00000000E+00
  0.00000000E+00  0.00000000E+00  0.00000000E+00
  0.00000000E+00  0.00000000E+00  0.00000000E+00
  0.00000000E+00  0.00000000E+00  0.00000000E+00
  0.00000000E+00  0.00000000E+00  0.00000000E+00
  0.00000000E+00  0.00000000E+00  0.00000000E+00
  0.00000000E+00  0.00000000E+00  0.00000000E+00
  0.00000000E+00  0.00000000E+00  0.00000000E+00
  0.00000000E+00  0.00000000E+00  0.00000000E+00
  0.00000000E+00  0.00000000E+00  0.00000000E+00
  0.00000000E+00  0.00000000E+00  0.00000000E+00
  0.00000000E+00  0.00000000E+00  0.00000000E+00
  0.00000000E+00  0.00000000E+00  0.00000000E+00
  0.00000000E+00  0.00000000E+00  0.00000000E+00
  0.00000000E+00  0.00000000E+00  0.00000000E+00
  0.00000000E+00  0.00000000E+00  0.00000000E+00
  0.00000000E+00  0.00000000E+00  0.00000000E+00
  0.00000000E+00  0.00000000E+00  0.00000000E+00
  0.00000000E+00  0.00000000E+00  0.00000000E+00
  0.00000000E+00  0.00000000E+00  0.00000000E+00
  0.00000000E+00  0.00000000E+00  0.00000000E+00
  0.00000000E+00  0.00000000E+00  0.00000000E+00
  0.00000000E+00  0.00000000E+00  0.00000000E+00
  0.00000000E+00  0.00000000E+00  0.00000000E+00
  0.00000000E+00  0.00000000E+00  0.00000000E+00
  0.00000000E+00  0.00000000E+00  0.00000000E+00
  0.00000000E+00  0.00000000E+00  0.00000000E+00
  0.00000000E+00  0.00000000E+00  0.00000000E+00
  0.00000000E+00  0.00000000E+00  0.00000000E+00
  0.00000000E+00  0.00000000E+00  0.00000000E+00
  0.00000000E+00  0.00000000E+00  0.00000000E+00
  0.00000000E+00  0.00000000E+00  0.00000000E+00
  0.00000000E+00  0.00000000E+00  0.00000000E+00
  0.00000000E+00  0.00000000E+00  0.00000000E+00
  0.00000000E+00  0.00000000E+00  0.00000000E+00
  0.00000000E+00  0.00000000E+00  0.00000000E+00
  0.00000000E+00  0.00000000E+00  0.00000000E+00
  0.00000000E+00  0.00000000E+00  0.00000000E+00
  0.00000000E+00  0.00000000E+00  0.00000000E+00
  0.00000000E+00  0.00000000E+00  0.00000000E+00
  0.00000000E+00  0.00000000E+00  0.00000000E+00
