Pt111                                   
   1.00000000000000     
    11.2227001190000006    0.0000000000000000    0.0000000000000000
     5.6113500595000003    9.7191434021000003    0.0000000000000000
     0.0000000000000000    0.0000000000000000   22.0000000000000000
   Pt   H 
    80    16
Direct
  0.7849580546219593  0.8689660713243237  0.3263489978942399
  0.0349362383685321  0.8688307097450074  0.3263115142609193
  0.0347463876597924  0.6190439344359562  0.3262946378658330
  0.7860014695864094  0.8683747774632088  0.0214020252239876
  0.0360558291004958  0.8683365192228625  0.0214521576571583
  0.0360955771205843  0.6182889745569562  0.0215168033406106
  0.6188781660437332  0.2020242038212204  0.1247878730927902
  0.3688952458645919  0.9521124227842998  0.1248823340937597
  0.0345394935394155  0.3690049857611511  0.3263231931617939
  0.0360169559537532  0.3683169362484843  0.0216353250982690
  0.8690471404036542  0.2018404855325422  0.1248304593930916
  0.9519544784267725  0.5355342061024009  0.2249681211336164
  0.2850539449833215  0.1184373720837706  0.3263478276870713
  0.5348802768362448  0.6186811752487924  0.3262639302717674
  0.2848621570692723  0.3687534439875687  0.3262510642966457
  0.2859659474049495  0.1183556548665103  0.0216946546731759
  0.5360680863236759  0.6183535151860894  0.0215722117563908
  0.2860230109925204  0.3683912368140387  0.0215690755430695
  0.6189771143448112  0.9520562724483942  0.1247900789346560
  0.7020929734928999  0.7856231892337006  0.2249284275913956
  0.8690134392964121  0.7020204214595127  0.1247688507028940
  0.6190777374638418  0.4519534759833440  0.1248971947311042
  0.2849695391703695  0.8686113495285390  0.3262732930263163
  0.2860534389299896  0.8683013868802533  0.0215875605657533
  0.6189837154509705  0.7021076446054179  0.1248935034606443
  0.2017415022299825  0.0356396619552939  0.2249791822983407
  0.8679720314051224  0.9520674778865595  0.4320616048580004
  0.1176766971670938  0.4520614685672064  0.4318779324691226
  0.1178729476048812  0.9520079048659696  0.4321596327265559
  0.8675345290502086  0.4521169980433918  0.4321911308958202
  0.3679789728605579  0.9516910309817329  0.4321842839649149
  0.8677903377018785  0.2021721499989621  0.4321566351339114
  0.1178218001009931  0.2019053748073325  0.4318130060169106
  0.6177995357458663  0.9520675718855590  0.4321062183687271
  0.8679730674306340  0.7019679257923931  0.4320750643254751
  0.3679657661311150  0.2018897919066635  0.4319370158219890
  0.3677760880067947  0.7020071219635370  0.4322630627505589
  0.6177473118265255  0.4518976661835438  0.4323872138706354
  0.1178361079620943  0.7020364950152849  0.4321903635975155
  0.6179151895780507  0.2019440167221937  0.4322036959032053
  0.5348786183521436  0.3686399933302855  0.3262117886567582
  0.5360103349292688  0.3684332196195339  0.0215416468943394
  0.5351250393436678  0.1186141887701399  0.3263121292348247
  0.5359828173210882  0.1183741321231145  0.0215164783257663
  0.8691371380199113  0.4518658583991425  0.1248741054025536
  0.1188571276052968  0.4518279352334426  0.1248492596514798
  0.0347251843110969  0.1186597851607014  0.3263523641645126
  0.0360221116281451  0.1183249609428699  0.0215718023927035
  0.1187882178483387  0.9520726178869112  0.1248395671152334
  0.3679698455338403  0.4521140561017118  0.4322433481212070
  0.4518330884872513  0.5354468416862661  0.2248631490424035
  0.6178451641107177  0.7019751628454590  0.4323591852213827
  0.3688087601795533  0.2019317013084058  0.1248375841466157
  0.1187976680381633  0.2019428322809898  0.1248474952475399
  0.9518895296064227  0.7855515336525685  0.2248989803031806
  0.7847354085121983  0.6190573389694796  0.3263531047954114
  0.2847385505915780  0.6187346345113257  0.3262002138036768
  0.7860031713727469  0.6183561892444841  0.0215895427383112
  0.2861256805329599  0.6183262478311171  0.0215867827705321
  0.3689261531403137  0.7021252844884499  0.1248723731876146
  0.3688743078220592  0.4518420919079476  0.1248301392384348
  0.2017229559916831  0.2852490332674504  0.2250227800494041
  0.7846102452828795  0.3689881386493637  0.3263156733633114
  0.7859023914173204  0.3684479422918838  0.0215902959820289
  0.9518464248192307  0.0354420514797254  0.2249414759787121
  0.4519159703248858  0.7857593355900477  0.2249458693290191
  0.7022403685812786  0.5354575364522743  0.2249431313503716
  0.2017741726246529  0.7856463815522622  0.2248863752626180
  0.4519207780337019  0.0355642758671587  0.2249676478746775
  0.1188810760226204  0.7019976346259149  0.1247824564930605
  0.7020050732527516  0.0355146043106914  0.2248928948512558
  0.7848800942627749  0.1188494801365656  0.3263394766923219
  0.5351191692998744  0.8686550584145333  0.3263423906209557
  0.7860096166262704  0.1184052905285036  0.0214973447273147
  0.5360131549580363  0.8683505196760599  0.0215498125211100
  0.2017392139533383  0.5353319358583520  0.2248734336671904
  0.9520302267311260  0.2853170525231537  0.2250075711998085
  0.8689396423338648  0.9519234933011418  0.1247502533003960
  0.7021340112460410  0.2853074334865630  0.2249118980082906
  0.4517764474309732  0.2853035378357771  0.2248940127756701
  0.4506708174411314  0.5350630857090691  0.4735270312377898
  0.7010278677045104  0.5357322199900545  0.4733358761296704
  0.2010706362435343  0.7857469889521275  0.4730952839710850
  0.4514975185276715  0.7852658895626961  0.4733030364225786
  0.7017806000720861  0.7859692530201281  0.4729611529254963
  0.9513960324007505  0.7857372679224486  0.4729195964164106
  0.2001302709635691  0.5355916411056807  0.4727366484186667
  0.9509078329895480  0.5356586422367211  0.4727816054610270
  0.2011127469528487  0.2854217703590131  0.4726333050960376
  0.4513552560288127  0.2842599944989938  0.4727791664728887
  0.7013935505736812  0.2853691856723015  0.4731719987064422
  0.9512765998043774  0.2856312760178221  0.4728397206769062
  0.2013014594235330  0.0356055088982497  0.4728090821491197
  0.4513621857310990  0.0350732417225487  0.4727927063471007
  0.7015204256531873  0.0355167565389790  0.4729156881100601
  0.9513460749089274  0.0356195277361923  0.4728651544980759
 
  0.00000000E+00  0.00000000E+00  0.00000000E+00
  0.00000000E+00  0.00000000E+00  0.00000000E+00
  0.00000000E+00  0.00000000E+00  0.00000000E+00
  0.00000000E+00  0.00000000E+00  0.00000000E+00
  0.00000000E+00  0.00000000E+00  0.00000000E+00
  0.00000000E+00  0.00000000E+00  0.00000000E+00
  0.00000000E+00  0.00000000E+00  0.00000000E+00
  0.00000000E+00  0.00000000E+00  0.00000000E+00
  0.00000000E+00  0.00000000E+00  0.00000000E+00
  0.00000000E+00  0.00000000E+00  0.00000000E+00
  0.00000000E+00  0.00000000E+00  0.00000000E+00
  0.00000000E+00  0.00000000E+00  0.00000000E+00
  0.00000000E+00  0.00000000E+00  0.00000000E+00
  0.00000000E+00  0.00000000E+00  0.00000000E+00
  0.00000000E+00  0.00000000E+00  0.00000000E+00
  0.00000000E+00  0.00000000E+00  0.00000000E+00
  0.00000000E+00  0.00000000E+00  0.00000000E+00
  0.00000000E+00  0.00000000E+00  0.00000000E+00
  0.00000000E+00  0.00000000E+00  0.00000000E+00
  0.00000000E+00  0.00000000E+00  0.00000000E+00
  0.00000000E+00  0.00000000E+00  0.00000000E+00
  0.00000000E+00  0.00000000E+00  0.00000000E+00
  0.00000000E+00  0.00000000E+00  0.00000000E+00
  0.00000000E+00  0.00000000E+00  0.00000000E+00
  0.00000000E+00  0.00000000E+00  0.00000000E+00
  0.00000000E+00  0.00000000E+00  0.00000000E+00
  0.00000000E+00  0.00000000E+00  0.00000000E+00
  0.00000000E+00  0.00000000E+00  0.00000000E+00
  0.00000000E+00  0.00000000E+00  0.00000000E+00
  0.00000000E+00  0.00000000E+00  0.00000000E+00
  0.00000000E+00  0.00000000E+00  0.00000000E+00
  0.00000000E+00  0.00000000E+00  0.00000000E+00
  0.00000000E+00  0.00000000E+00  0.00000000E+00
  0.00000000E+00  0.00000000E+00  0.00000000E+00
  0.00000000E+00  0.00000000E+00  0.00000000E+00
  0.00000000E+00  0.00000000E+00  0.00000000E+00
  0.00000000E+00  0.00000000E+00  0.00000000E+00
  0.00000000E+00  0.00000000E+00  0.00000000E+00
  0.00000000E+00  0.00000000E+00  0.00000000E+00
  0.00000000E+00  0.00000000E+00  0.00000000E+00
  0.00000000E+00  0.00000000E+00  0.00000000E+00
  0.00000000E+00  0.00000000E+00  0.00000000E+00
  0.00000000E+00  0.00000000E+00  0.00000000E+00
  0.00000000E+00  0.00000000E+00  0.00000000E+00
  0.00000000E+00  0.00000000E+00  0.00000000E+00
  0.00000000E+00  0.00000000E+00  0.00000000E+00
  0.00000000E+00  0.00000000E+00  0.00000000E+00
  0.00000000E+00  0.00000000E+00  0.00000000E+00
  0.00000000E+00  0.00000000E+00  0.00000000E+00
  0.00000000E+00  0.00000000E+00  0.00000000E+00
  0.00000000E+00  0.00000000E+00  0.00000000E+00
  0.00000000E+00  0.00000000E+00  0.00000000E+00
  0.00000000E+00  0.00000000E+00  0.00000000E+00
  0.00000000E+00  0.00000000E+00  0.00000000E+00
  0.00000000E+00  0.00000000E+00  0.00000000E+00
  0.00000000E+00  0.00000000E+00  0.00000000E+00
  0.00000000E+00  0.00000000E+00  0.00000000E+00
  0.00000000E+00  0.00000000E+00  0.00000000E+00
  0.00000000E+00  0.00000000E+00  0.00000000E+00
  0.00000000E+00  0.00000000E+00  0.00000000E+00
  0.00000000E+00  0.00000000E+00  0.00000000E+00
  0.00000000E+00  0.00000000E+00  0.00000000E+00
  0.00000000E+00  0.00000000E+00  0.00000000E+00
  0.00000000E+00  0.00000000E+00  0.00000000E+00
  0.00000000E+00  0.00000000E+00  0.00000000E+00
  0.00000000E+00  0.00000000E+00  0.00000000E+00
  0.00000000E+00  0.00000000E+00  0.00000000E+00
  0.00000000E+00  0.00000000E+00  0.00000000E+00
  0.00000000E+00  0.00000000E+00  0.00000000E+00
  0.00000000E+00  0.00000000E+00  0.00000000E+00
  0.00000000E+00  0.00000000E+00  0.00000000E+00
  0.00000000E+00  0.00000000E+00  0.00000000E+00
  0.00000000E+00  0.00000000E+00  0.00000000E+00
  0.00000000E+00  0.00000000E+00  0.00000000E+00
  0.00000000E+00  0.00000000E+00  0.00000000E+00
  0.00000000E+00  0.00000000E+00  0.00000000E+00
  0.00000000E+00  0.00000000E+00  0.00000000E+00
  0.00000000E+00  0.00000000E+00  0.00000000E+00
  0.00000000E+00  0.00000000E+00  0.00000000E+00
  0.00000000E+00  0.00000000E+00  0.00000000E+00
  0.00000000E+00  0.00000000E+00  0.00000000E+00
  0.00000000E+00  0.00000000E+00  0.00000000E+00
  0.00000000E+00  0.00000000E+00  0.00000000E+00
  0.00000000E+00  0.00000000E+00  0.00000000E+00
  0.00000000E+00  0.00000000E+00  0.00000000E+00
  0.00000000E+00  0.00000000E+00  0.00000000E+00
  0.00000000E+00  0.00000000E+00  0.00000000E+00
  0.00000000E+00  0.00000000E+00  0.00000000E+00
  0.00000000E+00  0.00000000E+00  0.00000000E+00
  0.00000000E+00  0.00000000E+00  0.00000000E+00
  0.00000000E+00  0.00000000E+00  0.00000000E+00
  0.00000000E+00  0.00000000E+00  0.00000000E+00
  0.00000000E+00  0.00000000E+00  0.00000000E+00
  0.00000000E+00  0.00000000E+00  0.00000000E+00
  0.00000000E+00  0.00000000E+00  0.00000000E+00
  0.00000000E+00  0.00000000E+00  0.00000000E+00
