11.26                                   
   1.00000000000000     
    11.2227001190000006    0.0000000000000000    0.0000000000000000
     5.6113500595000003    9.7191434021000003    0.0000000000000000
     0.0000000000000000    0.0000000000000000   22.0000000000000000
   Pt   Fe   Co   Cu   Ni
    32    13    10    13    12
Direct
  0.7822732537196032  0.8716411633596851  0.3047028855216370
  0.0322799256912946  0.8713604205017428  0.2997365054426681
  0.2772800130330271  0.3624439374144480  0.3142959004368091
  0.8705882424746619  0.9575622154064017  0.4055913058463974
  0.1086618877847810  0.4638694312825195  0.4129161101955179
  0.1217756921991341  0.9484286133035890  0.4060049241326046
  0.8719103141637927  0.4476889100592819  0.4158302347532530
  0.3717114452274638  0.9521123334345889  0.4146097213030894
  0.8700983983692876  0.2039654393856923  0.4069737880262118
  0.1256246258409410  0.2071799104660524  0.4130994574577227
  0.6251066906447348  0.9497813853980507  0.4115954959822320
  0.8686392878601192  0.7080106176153156  0.4123957422941164
  0.3763446247077721  0.1957112838322149  0.4153357046513942
  0.3689143345218999  0.7053043559467457  0.4072702749237571
  0.6210869213787350  0.4540032730913909  0.4116262905522982
  0.1161746760609457  0.7052688248999756  0.4099295801279829
  0.6226893408594742  0.2039309333382752  0.4097485453880908
  0.5360826014090652  0.3723597977016113  0.3100709204583278
  0.5315231416142082  0.1167565698736100  0.3113799990496992
  0.5569226188763298  0.1086708656920822  0.0592961979929713
  0.0930745014741067  0.4259856488098452  0.1229365454820867
  0.0507176672345554  0.1253333776122444  0.3106726415878388
  0.0235476180166807  0.1116837216395971  0.0415554665317813
  0.1293428954646285  0.9475379252740117  0.1410218874338981
  0.3668031287312105  0.4533843307840734  0.4119549383433543
  0.4463733127082249  0.5590599617994669  0.2201686420090644
  0.6171751133658949  0.7024186910408921  0.4127899469641708
  0.9496412988465778  0.7566142239571808  0.2091809507199842
  0.7944449142434225  0.6147697338306226  0.3156596131876768
  0.2706646777917088  0.6169529455058245  0.3085738698385655
  0.1891672861295218  0.2657704220057953  0.2250055169296913
  0.6933157080293466  0.5494170253066254  0.2213121226791092
  0.0317969487705310  0.6257950766179127  0.3139288569099876
  0.7908976721640784  0.8607398451574838  0.0643550995271142
  0.0497744387687562  0.8515179213673757  0.0563143962042739
  0.0482691984161403  0.6404573579444744  0.0664752515855510
  0.6277707382670187  0.2312090485466926  0.1342846206398228
  0.3782172184223740  0.9483996770157689  0.1357048643874697
  0.0289220590232099  0.3767902348647353  0.3195017476369045
  0.9804591417151849  0.3557507153540594  0.0436524654170014
  0.8640049940970785  0.2076928001863440  0.1340350911656704
  0.9451399085391280  0.5266535011814395  0.2211150897861097
  0.2978036790847902  0.1084028889205893  0.3200705898989818
  0.5390538525256343  0.6167584615154195  0.3185758924436091
  0.2731123853264671  0.0985488070381006  0.0516987688639591
  0.5334473651309177  0.6203591302230310  0.0498930076058447
  0.2770995757765733  0.4215163844846962  0.0587340680733817
  0.6210554875657583  0.9270430545089481  0.1407946278543561
  0.7025641402391691  0.7747404709198358  0.2204396092963818
  0.8411225825260324  0.6704695058706955  0.1300022238261043
  0.6105486174627067  0.4610934769144916  0.1309991407109656
  0.2996793713608954  0.8816984972356633  0.3178281200746836
  0.2940362362969320  0.8760797686445893  0.0475515383709198
  0.6041934999646482  0.7158029702043677  0.1307821798053433
  0.2360731343703998  0.0174466072730678  0.2280154387759092
  0.5242744956864512  0.3792912181268790  0.0425614798651341
  0.3551744787327392  0.2076428621209650  0.1336254578914994
  0.1731039612612378  0.6910893229307701  0.1515240298062135
  0.6923909364585142  0.0568688020667802  0.2191301533858810
  0.7844232095532779  0.1260049029454732  0.3106020055005615
  0.5395926952187996  0.8680683462895754  0.3159822946387661
  0.7883185831944395  0.1103053582687858  0.0446684269942726
  0.5334963982633140  0.8779383385561839  0.0444767040620829
  0.1956673589341559  0.5076262213751294  0.2180563182365853
  0.9389271056874510  0.2975856390932157  0.2254350185037978
  0.8699442896865286  0.9728939451015047  0.1405358531668085
  0.7122658308772107  0.2953772504070512  0.2257043105306606
  0.4508133290676997  0.2778763517491444  0.2206428684812713
  0.8520537964478822  0.4351961425526190  0.1324833155678707
  0.1113962825597685  0.1869968796996599  0.1345737873572473
  0.7644304487170451  0.5913785966967098  0.0471152797281060
  0.2998235260287352  0.6241094473362464  0.0562708154243051
  0.3800882668177980  0.7239098677055593  0.1343728076235012
  0.3936821377195973  0.4392606579928400  0.1380873863648059
  0.7829118466596832  0.3822559838186931  0.3177805048745310
  0.7666413314552009  0.3542370531261397  0.0467139270821190
  0.9442228821775773  0.0677696185237477  0.2233989054832337
  0.4628237781142664  0.7941129895453384  0.2276203148255247
  0.2363871684922780  0.7979533000700622  0.2316199022270823
  0.4553361679007999  0.0262284913416633  0.2236937692737881
 
  0.00000000E+00  0.00000000E+00  0.00000000E+00
  0.00000000E+00  0.00000000E+00  0.00000000E+00
  0.00000000E+00  0.00000000E+00  0.00000000E+00
  0.00000000E+00  0.00000000E+00  0.00000000E+00
  0.00000000E+00  0.00000000E+00  0.00000000E+00
  0.00000000E+00  0.00000000E+00  0.00000000E+00
  0.00000000E+00  0.00000000E+00  0.00000000E+00
  0.00000000E+00  0.00000000E+00  0.00000000E+00
  0.00000000E+00  0.00000000E+00  0.00000000E+00
  0.00000000E+00  0.00000000E+00  0.00000000E+00
  0.00000000E+00  0.00000000E+00  0.00000000E+00
  0.00000000E+00  0.00000000E+00  0.00000000E+00
  0.00000000E+00  0.00000000E+00  0.00000000E+00
  0.00000000E+00  0.00000000E+00  0.00000000E+00
  0.00000000E+00  0.00000000E+00  0.00000000E+00
  0.00000000E+00  0.00000000E+00  0.00000000E+00
  0.00000000E+00  0.00000000E+00  0.00000000E+00
  0.00000000E+00  0.00000000E+00  0.00000000E+00
  0.00000000E+00  0.00000000E+00  0.00000000E+00
  0.00000000E+00  0.00000000E+00  0.00000000E+00
  0.00000000E+00  0.00000000E+00  0.00000000E+00
  0.00000000E+00  0.00000000E+00  0.00000000E+00
  0.00000000E+00  0.00000000E+00  0.00000000E+00
  0.00000000E+00  0.00000000E+00  0.00000000E+00
  0.00000000E+00  0.00000000E+00  0.00000000E+00
  0.00000000E+00  0.00000000E+00  0.00000000E+00
  0.00000000E+00  0.00000000E+00  0.00000000E+00
  0.00000000E+00  0.00000000E+00  0.00000000E+00
  0.00000000E+00  0.00000000E+00  0.00000000E+00
  0.00000000E+00  0.00000000E+00  0.00000000E+00
  0.00000000E+00  0.00000000E+00  0.00000000E+00
  0.00000000E+00  0.00000000E+00  0.00000000E+00
  0.00000000E+00  0.00000000E+00  0.00000000E+00
  0.00000000E+00  0.00000000E+00  0.00000000E+00
  0.00000000E+00  0.00000000E+00  0.00000000E+00
  0.00000000E+00  0.00000000E+00  0.00000000E+00
  0.00000000E+00  0.00000000E+00  0.00000000E+00
  0.00000000E+00  0.00000000E+00  0.00000000E+00
  0.00000000E+00  0.00000000E+00  0.00000000E+00
  0.00000000E+00  0.00000000E+00  0.00000000E+00
  0.00000000E+00  0.00000000E+00  0.00000000E+00
  0.00000000E+00  0.00000000E+00  0.00000000E+00
  0.00000000E+00  0.00000000E+00  0.00000000E+00
  0.00000000E+00  0.00000000E+00  0.00000000E+00
  0.00000000E+00  0.00000000E+00  0.00000000E+00
  0.00000000E+00  0.00000000E+00  0.00000000E+00
  0.00000000E+00  0.00000000E+00  0.00000000E+00
  0.00000000E+00  0.00000000E+00  0.00000000E+00
  0.00000000E+00  0.00000000E+00  0.00000000E+00
  0.00000000E+00  0.00000000E+00  0.00000000E+00
  0.00000000E+00  0.00000000E+00  0.00000000E+00
  0.00000000E+00  0.00000000E+00  0.00000000E+00
  0.00000000E+00  0.00000000E+00  0.00000000E+00
  0.00000000E+00  0.00000000E+00  0.00000000E+00
  0.00000000E+00  0.00000000E+00  0.00000000E+00
  0.00000000E+00  0.00000000E+00  0.00000000E+00
  0.00000000E+00  0.00000000E+00  0.00000000E+00
  0.00000000E+00  0.00000000E+00  0.00000000E+00
  0.00000000E+00  0.00000000E+00  0.00000000E+00
  0.00000000E+00  0.00000000E+00  0.00000000E+00
  0.00000000E+00  0.00000000E+00  0.00000000E+00
  0.00000000E+00  0.00000000E+00  0.00000000E+00
  0.00000000E+00  0.00000000E+00  0.00000000E+00
  0.00000000E+00  0.00000000E+00  0.00000000E+00
  0.00000000E+00  0.00000000E+00  0.00000000E+00
  0.00000000E+00  0.00000000E+00  0.00000000E+00
  0.00000000E+00  0.00000000E+00  0.00000000E+00
  0.00000000E+00  0.00000000E+00  0.00000000E+00
  0.00000000E+00  0.00000000E+00  0.00000000E+00
  0.00000000E+00  0.00000000E+00  0.00000000E+00
  0.00000000E+00  0.00000000E+00  0.00000000E+00
  0.00000000E+00  0.00000000E+00  0.00000000E+00
  0.00000000E+00  0.00000000E+00  0.00000000E+00
  0.00000000E+00  0.00000000E+00  0.00000000E+00
  0.00000000E+00  0.00000000E+00  0.00000000E+00
  0.00000000E+00  0.00000000E+00  0.00000000E+00
  0.00000000E+00  0.00000000E+00  0.00000000E+00
  0.00000000E+00  0.00000000E+00  0.00000000E+00
  0.00000000E+00  0.00000000E+00  0.00000000E+00
  0.00000000E+00  0.00000000E+00  0.00000000E+00
