11.16                                   
   1.00000000000000     
    11.1599998474000000    0.0000000000000000    0.0000000000000000
     5.5799999237000000    9.6648433741000002    0.0000000000000000
     0.0000000000000000    0.0000000000000000   22.0000000000000000
   Pt   Fe   Co   Cu   Ni
    32    13    10    13    12
Direct
  0.7790767038913486  0.8818908690079397  0.3104923938126376
  0.0384703799765944  0.8801259564174657  0.3058648390767260
  0.2749800516816379  0.3790187485078391  0.3141271273687494
  0.8711971603900679  0.9644008390073253  0.4105935180166327
  0.1107605958622031  0.4682498466979581  0.4153436141489166
  0.1212214550485413  0.9593641787869700  0.4104254162014129
  0.8721183343694392  0.4551505031648162  0.4165046421789853
  0.3684112707692577  0.9597902763936546  0.4122137986629255
  0.8672170413556586  0.2112050241601082  0.4090938263767896
  0.1238654065029081  0.2133353615546554  0.4122451854779285
  0.6194496063977368  0.9587637608502604  0.4128771475888797
  0.8683583498580703  0.7142467258092253  0.4157825917063960
  0.3727899279596230  0.2059215684861968  0.4138666179745343
  0.3727428176853707  0.7124769806520916  0.4135560911206895
  0.6229316432980099  0.4627942712986126  0.4136168906885160
  0.1171301373095588  0.7122464756045588  0.4142726500802780
  0.6210366729899945  0.2077912316132995  0.4108490769578594
  0.5429480725473468  0.3774899822479227  0.3135021952147881
  0.5281655202595772  0.1271480805972089  0.3090418946225597
  0.5478916190628311  0.1245994064054159  0.0549539336720741
  0.1130902193557759  0.4519884428350593  0.1291438520828763
  0.0441446403912451  0.1337884930757767  0.3101103836653820
  0.0281390992203967  0.1359171888689374  0.0406928479766293
  0.1294499414789883  0.9573237212143653  0.1357000019204619
  0.3677212686632245  0.4610655182453769  0.4148238054109683
  0.4528446365800960  0.5528807583989561  0.2187959906826080
  0.6173362162328431  0.7112909272379397  0.4146068919294166
  0.9469631954910582  0.7803075476605841  0.2161238124276110
  0.7933753574197127  0.6241538392159143  0.3162221705917219
  0.2835285913679186  0.6312938572182816  0.3138000143135287
  0.1911695614673690  0.2737226147485998  0.2266477788769947
  0.6980958406375848  0.5541883567882806  0.2218317435018804
  0.0350214893192344  0.6344249529912673  0.3182626724756901
  0.7908978295275944  0.8557111089873288  0.0569359096100825
  0.0554173653947956  0.8567802825390629  0.0490203578963033
  0.0445451965877695  0.6442615560150102  0.0532704353527862
  0.6240844464500981  0.2341144706667961  0.1352596724898376
  0.3792172796784143  0.9494346762620793  0.1340347824045054
  0.0293849468227592  0.3857570127899450  0.3198364998736594
  0.0093451876404913  0.3762084944864412  0.0461819936832768
  0.8646267529620744  0.2200423957755078  0.1333105728901742
  0.9524352132621772  0.5395102480226939  0.2244074752912226
  0.2965614586634544  0.1142177188355475  0.3180165753477624
  0.5370000824575456  0.6256027573790348  0.3191499502101465
  0.2895247799240721  0.1092050519015757  0.0517268345373552
  0.5516626197830021  0.6207618484777413  0.0526461034314565
  0.3023068494911385  0.3839623997565127  0.0518835287335406
  0.6186890983759383  0.9417400576942683  0.1370883972374557
  0.7040650273232387  0.7881498446602606  0.2209138171273679
  0.8541384298280335  0.6899804128791160  0.1330435581385103
  0.6283866563838814  0.4528824416357580  0.1324239944964205
  0.2904640437158506  0.8752131929431499  0.3167558292028971
  0.3026481740934628  0.8761720162872280  0.0473781188754643
  0.6145144838005905  0.7211750155256951  0.1319835397609168
  0.2311682661913039  0.0210183801041737  0.2278517324206462
  0.5352017515109821  0.3873712821711379  0.0433025702254639
  0.3678468454086286  0.2064576200734365  0.1396260185984346
  0.1466149320262318  0.7074267341886014  0.1414101089507298
  0.6988688585250031  0.0536827550014252  0.2187416068238193
  0.7882492023999319  0.1267217805840843  0.3116592863494034
  0.5363574878771331  0.8705822413696609  0.3156478242880993
  0.7866496847415760  0.1303112800064739  0.0442763145119258
  0.5386892251342914  0.8748462985329226  0.0428328830344924
  0.2026457055649331  0.5403485286062875  0.2227983816929680
  0.9420447671688805  0.3045778677107052  0.2237953244563613
  0.8703270741640523  0.9716647031855317  0.1332489271091077
  0.7161098551480336  0.2941540774268177  0.2266985243365269
  0.4521382237884666  0.2995755779270155  0.2217703120415564
  0.8693027576562500  0.4557874660242760  0.1332993578412243
  0.1221834921053642  0.2001901971840923  0.1331006154743051
  0.7782833592681584  0.6189041841120044  0.0470458767764015
  0.2912330681359236  0.6255302319761427  0.0514163732639403
  0.3807501978488759  0.7190988294011049  0.1307622960570427
  0.3807334988737168  0.4545482873283362  0.1332987590277952
  0.7871110744365239  0.3864703815538704  0.3177964682757946
  0.7846949318307423  0.3776231642724426  0.0463351897667508
  0.9472245027786101  0.0640952775440198  0.2206809822875613
  0.4582390182098024  0.7938523569689551  0.2264600465361468
  0.2265780772025039  0.7969643257514392  0.2251731184474295
  0.4568148499964622  0.0216977197114474  0.2243877900108942
 
  0.00000000E+00  0.00000000E+00  0.00000000E+00
  0.00000000E+00  0.00000000E+00  0.00000000E+00
  0.00000000E+00  0.00000000E+00  0.00000000E+00
  0.00000000E+00  0.00000000E+00  0.00000000E+00
  0.00000000E+00  0.00000000E+00  0.00000000E+00
  0.00000000E+00  0.00000000E+00  0.00000000E+00
  0.00000000E+00  0.00000000E+00  0.00000000E+00
  0.00000000E+00  0.00000000E+00  0.00000000E+00
  0.00000000E+00  0.00000000E+00  0.00000000E+00
  0.00000000E+00  0.00000000E+00  0.00000000E+00
  0.00000000E+00  0.00000000E+00  0.00000000E+00
  0.00000000E+00  0.00000000E+00  0.00000000E+00
  0.00000000E+00  0.00000000E+00  0.00000000E+00
  0.00000000E+00  0.00000000E+00  0.00000000E+00
  0.00000000E+00  0.00000000E+00  0.00000000E+00
  0.00000000E+00  0.00000000E+00  0.00000000E+00
  0.00000000E+00  0.00000000E+00  0.00000000E+00
  0.00000000E+00  0.00000000E+00  0.00000000E+00
  0.00000000E+00  0.00000000E+00  0.00000000E+00
  0.00000000E+00  0.00000000E+00  0.00000000E+00
  0.00000000E+00  0.00000000E+00  0.00000000E+00
  0.00000000E+00  0.00000000E+00  0.00000000E+00
  0.00000000E+00  0.00000000E+00  0.00000000E+00
  0.00000000E+00  0.00000000E+00  0.00000000E+00
  0.00000000E+00  0.00000000E+00  0.00000000E+00
  0.00000000E+00  0.00000000E+00  0.00000000E+00
  0.00000000E+00  0.00000000E+00  0.00000000E+00
  0.00000000E+00  0.00000000E+00  0.00000000E+00
  0.00000000E+00  0.00000000E+00  0.00000000E+00
  0.00000000E+00  0.00000000E+00  0.00000000E+00
  0.00000000E+00  0.00000000E+00  0.00000000E+00
  0.00000000E+00  0.00000000E+00  0.00000000E+00
  0.00000000E+00  0.00000000E+00  0.00000000E+00
  0.00000000E+00  0.00000000E+00  0.00000000E+00
  0.00000000E+00  0.00000000E+00  0.00000000E+00
  0.00000000E+00  0.00000000E+00  0.00000000E+00
  0.00000000E+00  0.00000000E+00  0.00000000E+00
  0.00000000E+00  0.00000000E+00  0.00000000E+00
  0.00000000E+00  0.00000000E+00  0.00000000E+00
  0.00000000E+00  0.00000000E+00  0.00000000E+00
  0.00000000E+00  0.00000000E+00  0.00000000E+00
  0.00000000E+00  0.00000000E+00  0.00000000E+00
  0.00000000E+00  0.00000000E+00  0.00000000E+00
  0.00000000E+00  0.00000000E+00  0.00000000E+00
  0.00000000E+00  0.00000000E+00  0.00000000E+00
  0.00000000E+00  0.00000000E+00  0.00000000E+00
  0.00000000E+00  0.00000000E+00  0.00000000E+00
  0.00000000E+00  0.00000000E+00  0.00000000E+00
  0.00000000E+00  0.00000000E+00  0.00000000E+00
  0.00000000E+00  0.00000000E+00  0.00000000E+00
  0.00000000E+00  0.00000000E+00  0.00000000E+00
  0.00000000E+00  0.00000000E+00  0.00000000E+00
  0.00000000E+00  0.00000000E+00  0.00000000E+00
  0.00000000E+00  0.00000000E+00  0.00000000E+00
  0.00000000E+00  0.00000000E+00  0.00000000E+00
  0.00000000E+00  0.00000000E+00  0.00000000E+00
  0.00000000E+00  0.00000000E+00  0.00000000E+00
  0.00000000E+00  0.00000000E+00  0.00000000E+00
  0.00000000E+00  0.00000000E+00  0.00000000E+00
  0.00000000E+00  0.00000000E+00  0.00000000E+00
  0.00000000E+00  0.00000000E+00  0.00000000E+00
  0.00000000E+00  0.00000000E+00  0.00000000E+00
  0.00000000E+00  0.00000000E+00  0.00000000E+00
  0.00000000E+00  0.00000000E+00  0.00000000E+00
  0.00000000E+00  0.00000000E+00  0.00000000E+00
  0.00000000E+00  0.00000000E+00  0.00000000E+00
  0.00000000E+00  0.00000000E+00  0.00000000E+00
  0.00000000E+00  0.00000000E+00  0.00000000E+00
  0.00000000E+00  0.00000000E+00  0.00000000E+00
  0.00000000E+00  0.00000000E+00  0.00000000E+00
  0.00000000E+00  0.00000000E+00  0.00000000E+00
  0.00000000E+00  0.00000000E+00  0.00000000E+00
  0.00000000E+00  0.00000000E+00  0.00000000E+00
  0.00000000E+00  0.00000000E+00  0.00000000E+00
  0.00000000E+00  0.00000000E+00  0.00000000E+00
  0.00000000E+00  0.00000000E+00  0.00000000E+00
  0.00000000E+00  0.00000000E+00  0.00000000E+00
  0.00000000E+00  0.00000000E+00  0.00000000E+00
  0.00000000E+00  0.00000000E+00  0.00000000E+00
  0.00000000E+00  0.00000000E+00  0.00000000E+00
