Pt   H                                  
   1.00000000000000     
    11.2227001190000006    0.0000000000000000    0.0000000000000000
     5.6113500595000003    9.7191434021000003    0.0000000000000000
     0.0000000000000000    0.0000000000000000   22.0000000000000000
   Pt   H 
    80     2
Direct
  0.7850855968711468  0.8690633639509566  0.3268849314484817
  0.0350565340032621  0.8690293256871646  0.3269653742156976
  0.0352132151421942  0.6188312842883250  0.3267131555941155
  0.7858893741144781  0.8685504818107047  0.0230203319972425
  0.0358991904916390  0.8684920849101789  0.0230131594366904
  0.0360314970443877  0.6183530601589293  0.0230030312783724
  0.6189561625414887  0.2019473867341945  0.1260109643662163
  0.3687484746646565  0.9520993327351231  0.1260550094420100
  0.0351485167839200  0.3688168956561932  0.3268651259932140
  0.0360439818372068  0.3683262286996319  0.0231221296215986
  0.8689552062213191  0.2019392912987768  0.1261282770914010
  0.9519403598617312  0.5354838781173208  0.2264152434504460
  0.2848137000218784  0.1190852209080928  0.3268841437330777
  0.5352167318279947  0.6190787554444687  0.3265884983910697
  0.2847128758488095  0.3686861021945872  0.3263967434904813
  0.2857783632292546  0.1185842795651403  0.0231314690834069
  0.5359557252422865  0.6184349005872770  0.0229937890860690
  0.2857687603325196  0.3684196775083307  0.0230142230799319
  0.6188760175514472  0.9520364269044005  0.1260403224003055
  0.7020080609254657  0.7854836069387003  0.2263756555666562
  0.8689609152278364  0.7020117487376505  0.1260169733930347
  0.6189282749487186  0.4519177561971704  0.1259948157405581
  0.2851006489438247  0.8689817609980720  0.3269828283500179
  0.2858546747707308  0.8685169473320261  0.0230582042723701
  0.6189005477807248  0.7020506185208671  0.1259144486821813
  0.2021350521207085  0.0349431286620232  0.2267152127012218
  0.8681819963870229  0.9524761099353187  0.4301534657671583
  0.1181102976079863  0.4523271476006581  0.4298790917947521
  0.1173060000742143  0.9533619490677966  0.4301218107248128
  0.8690647741767755  0.4525098957386109  0.4299633451231579
  0.3682506920727294  0.9533577170193492  0.4299514101347819
  0.8691005995074375  0.2016033901700267  0.4301326860988159
  0.1181478130480432  0.2025428605544352  0.4301315928800462
  0.6182710754491165  0.9530396227118851  0.4299080754883275
  0.8686885201385124  0.7026685182410015  0.4299217267814943
  0.3679873147766172  0.2024921984309833  0.4298780346632994
  0.3663096112280377  0.7044836842319393  0.4290615156497882
  0.6202596828981404  0.4505015844494743  0.4290099614645000
  0.1173469851926920  0.7026973286543355  0.4297838281933028
  0.6182640111320012  0.2017214480380490  0.4297949149433682
  0.5348594189900447  0.3690086150839095  0.3267165944897080
  0.5360035826411902  0.3684527702471709  0.0229844365296817
  0.5349395240507689  0.1190723206892628  0.3267161103600703
  0.5358771051519419  0.1185201858247386  0.0230130645938115
  0.8690360773760936  0.4518174372331226  0.1260607579584751
  0.1188522899300561  0.4518916117034918  0.1260688463770186
  0.0350752398870461  0.1189525808447620  0.3269377667291212
  0.0360735912841842  0.1185400371642173  0.0231500349008505
  0.1188312801399493  0.9520060998256702  0.1261481642090693
  0.3671321005572947  0.4514330685792775  0.4291668089263527
  0.4519876579267672  0.5355644700250169  0.2263138420678190
  0.6195999634154238  0.7039790759837589  0.4289128026188205
  0.3688284114464610  0.2019596686863520  0.1260495845695205
  0.1187286257575306  0.2018658016457219  0.1263645774760593
  0.9519685356734102  0.7855444692364135  0.2264406450277907
  0.7855587761448394  0.6187504652464992  0.3266642643017545
  0.2850775439384804  0.6187902148015165  0.3267401283778769
  0.7859224344839978  0.6184827687111158  0.0230189243416658
  0.2859521508564054  0.6185149270423123  0.0230056346284454
  0.3688598961349102  0.7020328971968270  0.1259807288786119
  0.3688855582353481  0.4519132218793873  0.1259082972708142
  0.2018385242382615  0.2853234296765010  0.2264574403155516
  0.7850593533276454  0.3690655464233660  0.3269581323027558
  0.7858591391952718  0.3685129117190631  0.0230632787716901
  0.9518160864598877  0.0354398627227875  0.2265725056338749
  0.4520337606221190  0.7853611520337980  0.2263034933674719
  0.7018281524937012  0.5356339270682444  0.2263040043044920
  0.2019952320251718  0.7853434620703127  0.2264634751063274
  0.4518667238299519  0.0355305207558122  0.2264174748708356
  0.1188241212377116  0.7020809649995692  0.1260005300661085
  0.7019951823823979  0.0355235955375620  0.2264599294315359
  0.7850846348222844  0.1189994314581901  0.3270045363769577
  0.5348117272671206  0.8694784132594264  0.3266232468249710
  0.7860048419017958  0.1183929898628443  0.0230344971870659
  0.5359515078073314  0.8684535622964413  0.0229966462192619
  0.2020514384820055  0.5356225056976912  0.2262899797787178
  0.9513774471484413  0.2856937057873675  0.2267146057069160
  0.8689309264988154  0.9519911134320123  0.1260411194099874
  0.7018648564510059  0.2854701711705039  0.2264629226369649
  0.4520516174888651  0.2855802206176202  0.2262932943468449
  0.4732850199904090  0.5588321924093164  0.5256690745426965
  0.5128008202687487  0.5985526929607887  0.5263498019433149
 
  0.00000000E+00  0.00000000E+00  0.00000000E+00
  0.00000000E+00  0.00000000E+00  0.00000000E+00
  0.00000000E+00  0.00000000E+00  0.00000000E+00
  0.00000000E+00  0.00000000E+00  0.00000000E+00
  0.00000000E+00  0.00000000E+00  0.00000000E+00
  0.00000000E+00  0.00000000E+00  0.00000000E+00
  0.00000000E+00  0.00000000E+00  0.00000000E+00
  0.00000000E+00  0.00000000E+00  0.00000000E+00
  0.00000000E+00  0.00000000E+00  0.00000000E+00
  0.00000000E+00  0.00000000E+00  0.00000000E+00
  0.00000000E+00  0.00000000E+00  0.00000000E+00
  0.00000000E+00  0.00000000E+00  0.00000000E+00
  0.00000000E+00  0.00000000E+00  0.00000000E+00
  0.00000000E+00  0.00000000E+00  0.00000000E+00
  0.00000000E+00  0.00000000E+00  0.00000000E+00
  0.00000000E+00  0.00000000E+00  0.00000000E+00
  0.00000000E+00  0.00000000E+00  0.00000000E+00
  0.00000000E+00  0.00000000E+00  0.00000000E+00
  0.00000000E+00  0.00000000E+00  0.00000000E+00
  0.00000000E+00  0.00000000E+00  0.00000000E+00
  0.00000000E+00  0.00000000E+00  0.00000000E+00
  0.00000000E+00  0.00000000E+00  0.00000000E+00
  0.00000000E+00  0.00000000E+00  0.00000000E+00
  0.00000000E+00  0.00000000E+00  0.00000000E+00
  0.00000000E+00  0.00000000E+00  0.00000000E+00
  0.00000000E+00  0.00000000E+00  0.00000000E+00
  0.00000000E+00  0.00000000E+00  0.00000000E+00
  0.00000000E+00  0.00000000E+00  0.00000000E+00
  0.00000000E+00  0.00000000E+00  0.00000000E+00
  0.00000000E+00  0.00000000E+00  0.00000000E+00
  0.00000000E+00  0.00000000E+00  0.00000000E+00
  0.00000000E+00  0.00000000E+00  0.00000000E+00
  0.00000000E+00  0.00000000E+00  0.00000000E+00
  0.00000000E+00  0.00000000E+00  0.00000000E+00
  0.00000000E+00  0.00000000E+00  0.00000000E+00
  0.00000000E+00  0.00000000E+00  0.00000000E+00
  0.00000000E+00  0.00000000E+00  0.00000000E+00
  0.00000000E+00  0.00000000E+00  0.00000000E+00
  0.00000000E+00  0.00000000E+00  0.00000000E+00
  0.00000000E+00  0.00000000E+00  0.00000000E+00
  0.00000000E+00  0.00000000E+00  0.00000000E+00
  0.00000000E+00  0.00000000E+00  0.00000000E+00
  0.00000000E+00  0.00000000E+00  0.00000000E+00
  0.00000000E+00  0.00000000E+00  0.00000000E+00
  0.00000000E+00  0.00000000E+00  0.00000000E+00
  0.00000000E+00  0.00000000E+00  0.00000000E+00
  0.00000000E+00  0.00000000E+00  0.00000000E+00
  0.00000000E+00  0.00000000E+00  0.00000000E+00
  0.00000000E+00  0.00000000E+00  0.00000000E+00
  0.00000000E+00  0.00000000E+00  0.00000000E+00
  0.00000000E+00  0.00000000E+00  0.00000000E+00
  0.00000000E+00  0.00000000E+00  0.00000000E+00
  0.00000000E+00  0.00000000E+00  0.00000000E+00
  0.00000000E+00  0.00000000E+00  0.00000000E+00
  0.00000000E+00  0.00000000E+00  0.00000000E+00
  0.00000000E+00  0.00000000E+00  0.00000000E+00
  0.00000000E+00  0.00000000E+00  0.00000000E+00
  0.00000000E+00  0.00000000E+00  0.00000000E+00
  0.00000000E+00  0.00000000E+00  0.00000000E+00
  0.00000000E+00  0.00000000E+00  0.00000000E+00
  0.00000000E+00  0.00000000E+00  0.00000000E+00
  0.00000000E+00  0.00000000E+00  0.00000000E+00
  0.00000000E+00  0.00000000E+00  0.00000000E+00
  0.00000000E+00  0.00000000E+00  0.00000000E+00
  0.00000000E+00  0.00000000E+00  0.00000000E+00
  0.00000000E+00  0.00000000E+00  0.00000000E+00
  0.00000000E+00  0.00000000E+00  0.00000000E+00
  0.00000000E+00  0.00000000E+00  0.00000000E+00
  0.00000000E+00  0.00000000E+00  0.00000000E+00
  0.00000000E+00  0.00000000E+00  0.00000000E+00
  0.00000000E+00  0.00000000E+00  0.00000000E+00
  0.00000000E+00  0.00000000E+00  0.00000000E+00
  0.00000000E+00  0.00000000E+00  0.00000000E+00
  0.00000000E+00  0.00000000E+00  0.00000000E+00
  0.00000000E+00  0.00000000E+00  0.00000000E+00
  0.00000000E+00  0.00000000E+00  0.00000000E+00
  0.00000000E+00  0.00000000E+00  0.00000000E+00
  0.00000000E+00  0.00000000E+00  0.00000000E+00
  0.00000000E+00  0.00000000E+00  0.00000000E+00
  0.00000000E+00  0.00000000E+00  0.00000000E+00
  0.00000000E+00  0.00000000E+00  0.00000000E+00
  0.00000000E+00  0.00000000E+00  0.00000000E+00
