10.96                                   
   1.00000000000000     
    10.9600000381000005    0.0000000000000000    0.0000000000000000
     5.4800000191000002    9.4916384585000007    0.0000000000000000
     0.0000000000000000    0.0000000000000000   22.0000000000000000
   Pt   Fe   Co   Cu   Ni   H 
    32    13    10    13    12     1
Selective dynamics
Direct
  0.7861800390546092  0.8798614652196991  0.3130793889049477   T   T   T
  0.0429650539615229  0.8810820089057033  0.3100708377468899   T   T   T
  0.2801564137800321  0.3781073694447812  0.3162953758800182   T   T   T
  0.8746238814901099  0.9640152787687672  0.4150536857060982   T   T   T
  0.1173191632500630  0.4674683427117786  0.4192378879789457   T   T   T
  0.1251100554560000  0.9580982439546483  0.4137709113791386   T   T   T
  0.8754535532009372  0.4578669447885781  0.4197829222271340   T   T   T
  0.3770382394453595  0.9548367104782030  0.4168303866785715   T   T   T
  0.8737816672032023  0.2108738235665150  0.4136538046593917   T   T   T
  0.1226094164092456  0.2123643629768469  0.4178239586911007   T   T   T
  0.6284808990898444  0.9579411221703563  0.4166123997434026   T   T   T
  0.8742251783925964  0.7118569738804115  0.4193425039333079   T   T   T
  0.3765652937867944  0.2098624645324207  0.4203241817969544   T   T   T
  0.3775156114132148  0.7110429829291993  0.4165358501789229   T   T   T
  0.6271057691015386  0.4614254357638689  0.4167741671372293   T   T   T
  0.1241966228217123  0.7102900096897122  0.4184156806163555   T   T   T
  0.6259313698902466  0.2098510696540110  0.4156585901002129   T   T   T
  0.5479376761919157  0.3762154483745430  0.3150301127308578   T   T   T
  0.5334735221536147  0.1250676589833655  0.3127870321754098   T   T   T
  0.5522125408244705  0.1229980439735883  0.0492007837818207   F   F   F
  0.1179447475166739  0.4553776451871983  0.1279299605909117   F   F   F
  0.0470134146522225  0.1353688167218685  0.3118260473359907   T   T   T
  0.0331546293162290  0.1349486531119339  0.0377446314227257   F   F   F
  0.1316392841220875  0.9574759255143590  0.1340278734000009   F   F   F
  0.3739920623254268  0.4602204132851533  0.4185910328467010   T   T   T
  0.4566663465124705  0.5492648756265339  0.2193267658181810   F   F   F
  0.6236424030452650  0.7099731479577851  0.4175394923127834   T   T   T
  0.9558082579071581  0.7831430855589829  0.2183892191636332   F   F   F
  0.7979861503979132  0.6231572452098477  0.3171219397317855   T   T   T
  0.2891950468880821  0.6301293774617677  0.3150244137107201   T   T   T
  0.1986792080509545  0.2771687989594724  0.2254811289227305   F   F   F
  0.7045827475186641  0.5523289943798062  0.2213619481181794   F   F   F
  0.0411855693626332  0.6324081471424166  0.3205358729295638   T   T   T
  0.7920397940622550  0.8619624074885976  0.0511947968227275   F   F   F
  0.0526981245086802  0.8624210274643787  0.0444735392454518   F   F   F
  0.0457035805815948  0.6408036659206289  0.0458596178818169   F   F   F
  0.6280262762717825  0.2294732051187083  0.1337968902681794   F   F   F
  0.3825060135975420  0.9534483106544869  0.1327341964000013   F   F   F
  0.0357338350247182  0.3840207477705829  0.3213360274526308   T   T   T
  0.0161929607427993  0.3818764830379777  0.0412025564000018   F   F   F
  0.8704299207406763  0.2168907108715672  0.1317857703409118   F   F   F
  0.9563404382489509  0.5414389604039087  0.2237078816545477   F   F   F
  0.2989697678054505  0.1142241908428407  0.3200178458895085   T   T   T
  0.5416994469570111  0.6269543989222575  0.3197827973679045   T   T   T
  0.2929366193431733  0.1152265724702772  0.0453832930500013   F   F   F
  0.5520103083108907  0.6233459614553212  0.0478800615045429   F   F   F
  0.3057569488876624  0.3802645026968747  0.0468428708363646   F   F   F
  0.6239564555179768  0.9453132092873631  0.1363931434772709   F   F   F
  0.7083597009675202  0.7902410750572741  0.2210134316636356   F   F   F
  0.8605432662291435  0.6969997948958451  0.1321407462181838   F   F   F
  0.6280822250932729  0.4576845886507286  0.1300764273499979   F   F   F
  0.2973766733789227  0.8734835573339486  0.3167917616844348   T   T   T
  0.3062668485040945  0.8731072350821165  0.0445594179636331   F   F   F
  0.6226125853193309  0.7181745901936978  0.1307167480909115   F   F   F
  0.2304623798570589  0.0242330841830594  0.2276022954318151   F   F   F
  0.5428213397594490  0.3783856650780564  0.0401873396772743   F   F   F
  0.3772698501728584  0.2056045922453293  0.1374041287409113   F   F   F
  0.1480591264527078  0.7031483988334202  0.1372085456590924   F   F   F
  0.7035999555239911  0.0531163181998906  0.2207213082318162   F   F   F
  0.7936052692729326  0.1290844947520400  0.3140922530168582   T   T   T
  0.5399004859585431  0.8717632481451629  0.3163656518557940   T   T   T
  0.7916566268092922  0.1278317223843928  0.0406717152136338   F   F   F
  0.5477391611314957  0.8745077200413860  0.0407165425409062   F   F   F
  0.2081864432224165  0.5393639650818542  0.2229058860863660   F   F   F
  0.9479545332625037  0.3025804781289452  0.2228709549181787   F   F   F
  0.8695284713262765  0.9706931983749456  0.1330532267227298   F   F   F
  0.7178726439639220  0.2936926343421362  0.2256009570863640   F   F   F
  0.4565257253224786  0.2958654421023752  0.2224053839000035   F   F   F
  0.8724899802044774  0.4567009542507421  0.1303056939181815   F   F   F
  0.1243640075760553  0.2032220342603352  0.1319550582500000   F   F   F
  0.7873792025498005  0.6247287542742228  0.0440385979227287   F   F   F
  0.2993238400808877  0.6211331967054008  0.0480245963681796   F   F   F
  0.3856511081424543  0.7159506384289642  0.1307995094090941   F   F   F
  0.3847156394135922  0.4515386979644092  0.1311039896954540   F   F   F
  0.7927165311050171  0.3834978546201912  0.3190090302007833   T   T   T
  0.7893358288451608  0.3732859221083231  0.0438327165318171   F   F   F
  0.9536690361912719  0.0590088832448572  0.2213364501545456   F   F   F
  0.4606923424526741  0.7960359873835756  0.2256473434863651   F   F   F
  0.2223569724678214  0.7974698432936549  0.2249389915045441   F   F   F
  0.4608302578015682  0.0261812332914388  0.2241487908681847   F   F   F
  0.2971070428130775  0.1265110230297626  0.4605585753673428   T   T   T
 
  0.00000000E+00  0.00000000E+00  0.00000000E+00
  0.00000000E+00  0.00000000E+00  0.00000000E+00
  0.00000000E+00  0.00000000E+00  0.00000000E+00
  0.00000000E+00  0.00000000E+00  0.00000000E+00
  0.00000000E+00  0.00000000E+00  0.00000000E+00
  0.00000000E+00  0.00000000E+00  0.00000000E+00
  0.00000000E+00  0.00000000E+00  0.00000000E+00
  0.00000000E+00  0.00000000E+00  0.00000000E+00
  0.00000000E+00  0.00000000E+00  0.00000000E+00
  0.00000000E+00  0.00000000E+00  0.00000000E+00
  0.00000000E+00  0.00000000E+00  0.00000000E+00
  0.00000000E+00  0.00000000E+00  0.00000000E+00
  0.00000000E+00  0.00000000E+00  0.00000000E+00
  0.00000000E+00  0.00000000E+00  0.00000000E+00
  0.00000000E+00  0.00000000E+00  0.00000000E+00
  0.00000000E+00  0.00000000E+00  0.00000000E+00
  0.00000000E+00  0.00000000E+00  0.00000000E+00
  0.00000000E+00  0.00000000E+00  0.00000000E+00
  0.00000000E+00  0.00000000E+00  0.00000000E+00
  0.00000000E+00  0.00000000E+00  0.00000000E+00
  0.00000000E+00  0.00000000E+00  0.00000000E+00
  0.00000000E+00  0.00000000E+00  0.00000000E+00
  0.00000000E+00  0.00000000E+00  0.00000000E+00
  0.00000000E+00  0.00000000E+00  0.00000000E+00
  0.00000000E+00  0.00000000E+00  0.00000000E+00
  0.00000000E+00  0.00000000E+00  0.00000000E+00
  0.00000000E+00  0.00000000E+00  0.00000000E+00
  0.00000000E+00  0.00000000E+00  0.00000000E+00
  0.00000000E+00  0.00000000E+00  0.00000000E+00
  0.00000000E+00  0.00000000E+00  0.00000000E+00
  0.00000000E+00  0.00000000E+00  0.00000000E+00
  0.00000000E+00  0.00000000E+00  0.00000000E+00
  0.00000000E+00  0.00000000E+00  0.00000000E+00
  0.00000000E+00  0.00000000E+00  0.00000000E+00
  0.00000000E+00  0.00000000E+00  0.00000000E+00
  0.00000000E+00  0.00000000E+00  0.00000000E+00
  0.00000000E+00  0.00000000E+00  0.00000000E+00
  0.00000000E+00  0.00000000E+00  0.00000000E+00
  0.00000000E+00  0.00000000E+00  0.00000000E+00
  0.00000000E+00  0.00000000E+00  0.00000000E+00
  0.00000000E+00  0.00000000E+00  0.00000000E+00
  0.00000000E+00  0.00000000E+00  0.00000000E+00
  0.00000000E+00  0.00000000E+00  0.00000000E+00
  0.00000000E+00  0.00000000E+00  0.00000000E+00
  0.00000000E+00  0.00000000E+00  0.00000000E+00
  0.00000000E+00  0.00000000E+00  0.00000000E+00
  0.00000000E+00  0.00000000E+00  0.00000000E+00
  0.00000000E+00  0.00000000E+00  0.00000000E+00
  0.00000000E+00  0.00000000E+00  0.00000000E+00
  0.00000000E+00  0.00000000E+00  0.00000000E+00
  0.00000000E+00  0.00000000E+00  0.00000000E+00
  0.00000000E+00  0.00000000E+00  0.00000000E+00
  0.00000000E+00  0.00000000E+00  0.00000000E+00
  0.00000000E+00  0.00000000E+00  0.00000000E+00
  0.00000000E+00  0.00000000E+00  0.00000000E+00
  0.00000000E+00  0.00000000E+00  0.00000000E+00
  0.00000000E+00  0.00000000E+00  0.00000000E+00
  0.00000000E+00  0.00000000E+00  0.00000000E+00
  0.00000000E+00  0.00000000E+00  0.00000000E+00
  0.00000000E+00  0.00000000E+00  0.00000000E+00
  0.00000000E+00  0.00000000E+00  0.00000000E+00
  0.00000000E+00  0.00000000E+00  0.00000000E+00
  0.00000000E+00  0.00000000E+00  0.00000000E+00
  0.00000000E+00  0.00000000E+00  0.00000000E+00
  0.00000000E+00  0.00000000E+00  0.00000000E+00
  0.00000000E+00  0.00000000E+00  0.00000000E+00
  0.00000000E+00  0.00000000E+00  0.00000000E+00
  0.00000000E+00  0.00000000E+00  0.00000000E+00
  0.00000000E+00  0.00000000E+00  0.00000000E+00
  0.00000000E+00  0.00000000E+00  0.00000000E+00
  0.00000000E+00  0.00000000E+00  0.00000000E+00
  0.00000000E+00  0.00000000E+00  0.00000000E+00
  0.00000000E+00  0.00000000E+00  0.00000000E+00
  0.00000000E+00  0.00000000E+00  0.00000000E+00
  0.00000000E+00  0.00000000E+00  0.00000000E+00
  0.00000000E+00  0.00000000E+00  0.00000000E+00
  0.00000000E+00  0.00000000E+00  0.00000000E+00
  0.00000000E+00  0.00000000E+00  0.00000000E+00
  0.00000000E+00  0.00000000E+00  0.00000000E+00
  0.00000000E+00  0.00000000E+00  0.00000000E+00
  0.00000000E+00  0.00000000E+00  0.00000000E+00
