Pt   H                                  
   1.00000000000000     
    11.2227001190000006    0.0000000000000000    0.0000000000000000
     5.6113500595000003    9.7191434021000003    0.0000000000000000
     0.0000000000000000    0.0000000000000000   22.0000000000000000
   Pt   H 
    80    17
Direct
  0.7856480383749378  0.8692723318617203  0.3257655447863265
  0.0355790041813177  0.8692114046123399  0.3257696390296460
  0.0355709945150990  0.6193719504905473  0.3257624127859357
  0.7853409238848030  0.8692606880675146  0.0204744711451322
  0.0350900229698848  0.8691887080835980  0.0207377278335579
  0.0351265736015808  0.6194451048362375  0.0207277816984588
  0.6188138020374688  0.2024294317397304  0.1239002241536001
  0.3687596630677177  0.9526784481734253  0.1239594095975026
  0.0357516861034068  0.3692535458745574  0.3259376441279641
  0.0355847153070472  0.3686162522409915  0.0209203064483713
  0.8688904092425292  0.2024534482317437  0.1239591210131441
  0.9522092999078877  0.5359064629405097  0.2242964929808790
  0.2856747987475221  0.1193472446626834  0.3259539116142263
  0.5359736921841297  0.6195066619909306  0.3247567294716862
  0.2851206958342051  0.3687548516640033  0.3251915063465484
  0.2847150959923304  0.1196214622048174  0.0209579776030012
  0.5353264930440226  0.6191569097924718  0.0206173203238526
  0.2852918347681405  0.3692532112203820  0.0206349868866670
  0.6188277359716596  0.9525418071578663  0.1239893812632874
  0.7023015678985729  0.7859308081668773  0.2241517081464509
  0.8687535049858663  0.7026171603661183  0.1239877035996618
  0.6190293090803312  0.4524173657952151  0.1237518204687495
  0.2851299293863802  0.8704002951596127  0.3251438836147014
  0.2852965979085575  0.8692640022819030  0.0206350707926106
  0.6187993967028992  0.7026458646196792  0.1238865884766495
  0.2024263016713163  0.0355302264084319  0.2244207079398534
  0.8693257417288993  0.9526418646733442  0.4317000859285841
  0.1199074682317452  0.4528680039685145  0.4316842910450285
  0.1199134371939288  0.9518089055503151  0.4316809283588670
  0.8684106009882886  0.4527611034533284  0.4316243644636082
  0.3693959868945420  0.9518802700115792  0.4316323880442781
  0.8683670807260156  0.2032040303198776  0.4316716384323533
  0.1191353992385960  0.2026745791393920  0.4318286017602199
  0.6190226288395784  0.9528363272123324  0.4317385987229765
  0.8692781703644126  0.7024397195616728  0.4317005253741973
  0.3692887668114324  0.2033759268124741  0.4317199376307563
  0.3711751793242948  0.6987171741786971  0.4291853033198743
  0.6153399837316532  0.4545297466931555  0.4291481272176000
  0.1213422862416569  0.7015616107986326  0.4319048895687599
  0.6180808284359587  0.2047617969271935  0.4318897180830147
  0.5357658423940007  0.3687290539918691  0.3248371194347411
  0.5352993417858458  0.3691869624370110  0.0206129570206762
  0.5358108354505829  0.1191052884391719  0.3257695940280759
  0.5356170814268245  0.1189686625977510  0.0207266060733997
  0.8689200453070275  0.4524890502795659  0.1239426127275055
  0.1186676451186640  0.4525985550931637  0.1239550959550892
  0.0356751295361836  0.1192260456068473  0.3259434450686394
  0.0356507344723497  0.1195209380451250  0.0209647643162950
  0.1186716478315730  0.9526929804007246  0.1239730660593857
  0.3712699077215171  0.4546836625280723  0.4295461181792949
  0.4522049277476712  0.5359250666367146  0.2236206588222464
  0.6181970918158701  0.7016284107573583  0.4317122105697510
  0.3687816203526118  0.2025026164137244  0.1239572433365317
  0.1187646543575043  0.2026014475531294  0.1247229190426708
  0.9521255797117520  0.7859362351911351  0.2241964841847352
  0.7857450221648501  0.6193687855429757  0.3257225004245426
  0.2851859488157156  0.6194580635390179  0.3248603346791125
  0.7852604654009447  0.6195833067678927  0.0207312143651299
  0.2853316911463465  0.6192991689827568  0.0206090424466088
  0.3686639426619344  0.7028311805024939  0.1237623190902120
  0.3686585761800825  0.4524484585322357  0.1237538585158177
  0.2024340999175591  0.2861089258246046  0.2243733425692760
  0.7867601237314034  0.3686755956188859  0.3251204912411225
  0.7852877709335822  0.3692578167617597  0.0206270711857447
  0.9521749982937602  0.0359010961556962  0.2243362851709995
  0.4524920879987942  0.7858640540177982  0.2239830096977329
  0.7021486423172043  0.5361267208201794  0.2239462843425657
  0.2020578702737811  0.7858240689144734  0.2239641301707610
  0.4522026550371788  0.0359618266120951  0.2243036980407935
  0.1186248561352786  0.7026567472003530  0.1239027717582528
  0.7022715880775221  0.0357573549929146  0.2241767896676014
  0.7856108429529430  0.1191282636875063  0.3257748597604335
  0.5358443733305267  0.8693174442367159  0.3257355328839869
  0.7853271781490794  0.1190115645169179  0.0207361517329527
  0.5355031273931157  0.8691953581882209  0.0207325170867461
  0.2020577909817354  0.5361631930413572  0.2239929287831052
  0.9518186979201042  0.2860916246267569  0.2244272562054513
  0.8687984028295335  0.9524862961340702  0.1240151809570085
  0.7021450716492017  0.2856808630015552  0.2239569875266279
  0.4524849914051180  0.2857803657289498  0.2240011805728262
  0.4631256290368472  0.5443170641230202  0.5488267021285144
  0.4819287907994240  0.5592545254725932  0.5796573262472363
  0.7007296701022216  0.5349578035468202  0.4716746323585406
  0.2058083547642772  0.7840075670516237  0.4718058534913710
  0.4514943562992154  0.7840850183339653  0.4716891560263528
  0.7022040633957940  0.7857490040017204  0.4720624244453809
  0.9530633937494493  0.7856294451694960  0.4721166657929086
  0.2063503172360136  0.5346184317101642  0.4719554085183293
  0.9524863576788581  0.5361610089593565  0.4722874193620578
  0.2026137006145445  0.2862182659692071  0.4725169901596455
  0.4511153273280879  0.2897732498290432  0.4719519028506996
  0.7005929736460546  0.2891345494523040  0.4717876723386162
  0.9520234580972775  0.2861612157345866  0.4725048310721365
  0.2027638336876084  0.0355639852771984  0.4725023690749626
  0.4527378019226088  0.0359471652727795  0.4723285103262226
  0.7022907705277727  0.0365093012011683  0.4721324981718171
  0.9524533313578357  0.0357626776826125  0.4723087717052518
 
             NaN             NaN             NaN
             NaN             NaN             NaN
             NaN             NaN             NaN
             NaN             NaN             NaN
             NaN             NaN             NaN
             NaN             NaN             NaN
             NaN             NaN             NaN
             NaN             NaN             NaN
             NaN             NaN             NaN
             NaN             NaN             NaN
             NaN             NaN             NaN
             NaN             NaN             NaN
             NaN             NaN             NaN
             NaN             NaN             NaN
             NaN             NaN             NaN
             NaN             NaN             NaN
             NaN             NaN             NaN
             NaN             NaN             NaN
             NaN             NaN             NaN
             NaN             NaN             NaN
             NaN             NaN             NaN
             NaN             NaN             NaN
             NaN             NaN             NaN
             NaN             NaN             NaN
             NaN             NaN             NaN
             NaN             NaN             NaN
             NaN             NaN             NaN
             NaN             NaN             NaN
             NaN             NaN             NaN
             NaN             NaN             NaN
             NaN             NaN             NaN
             NaN             NaN             NaN
             NaN             NaN             NaN
             NaN             NaN             NaN
             NaN             NaN             NaN
             NaN             NaN             NaN
             NaN             NaN             NaN
             NaN             NaN             NaN
             NaN             NaN             NaN
             NaN             NaN             NaN
             NaN             NaN             NaN
             NaN             NaN             NaN
             NaN             NaN             NaN
             NaN             NaN             NaN
             NaN             NaN             NaN
             NaN             NaN             NaN
             NaN             NaN             NaN
             NaN             NaN             NaN
             NaN             NaN             NaN
             NaN             NaN             NaN
             NaN             NaN             NaN
             NaN             NaN             NaN
             NaN             NaN             NaN
             NaN             NaN             NaN
             NaN             NaN             NaN
             NaN             NaN             NaN
             NaN             NaN             NaN
             NaN             NaN             NaN
             NaN             NaN             NaN
             NaN             NaN             NaN
             NaN             NaN             NaN
             NaN             NaN             NaN
             NaN             NaN             NaN
             NaN             NaN             NaN
             NaN             NaN             NaN
             NaN             NaN             NaN
             NaN             NaN             NaN
             NaN             NaN             NaN
             NaN             NaN             NaN
             NaN             NaN             NaN
             NaN             NaN             NaN
             NaN             NaN             NaN
             NaN             NaN             NaN
             NaN             NaN             NaN
             NaN             NaN             NaN
             NaN             NaN             NaN
             NaN             NaN             NaN
             NaN             NaN             NaN
             NaN             NaN             NaN
             NaN             NaN             NaN
             NaN             NaN             NaN
             NaN             NaN             NaN
             NaN             NaN             NaN
             NaN             NaN             NaN
             NaN             NaN             NaN
             NaN             NaN             NaN
             NaN             NaN             NaN
             NaN             NaN             NaN
             NaN             NaN             NaN
             NaN             NaN             NaN
             NaN             NaN             NaN
             NaN             NaN             NaN
             NaN             NaN             NaN
             NaN             NaN             NaN
             NaN             NaN             NaN
             NaN             NaN             NaN
             NaN             NaN             NaN
