11.26                                   
   1.00000000000000     
    11.2227001190000006    0.0000000000000000    0.0000000000000000
     5.6113500595000003    9.7191434021000003    0.0000000000000000
     0.0000000000000000    0.0000000000000000   22.0000000000000000
   Pt   Fe   Co   Ni   H 
    32    16    15    17     1
Selective dynamics
Direct
  0.7837344420737722  0.8702890004352000  0.3043797010681786   F   F   F
  0.0301541960061229  0.8687306420209495  0.2996366071181811   F   F   F
  0.2787200520941653  0.3608359588914212  0.3110129573636371   F   F   F
  0.8695957498745770  0.9579716589414957  0.4061297975000002   F   F   F
  0.1140183699024462  0.4522509197107070  0.4127429111272747   F   F   F
  0.1258551274433728  0.9478514225039092  0.4023937630772707   F   F   F
  0.8684652670575659  0.4455996126123907  0.4113217638863631   F   F   F
  0.3741070155493631  0.9528137664168099  0.4161093056045431   F   F   F
  0.8720417953901389  0.2000418363494774  0.4056862525909111   F   F   F
  0.1237031481717423  0.2030560206029648  0.4100176415954522   F   F   F
  0.6244644540291375  0.9483129142953644  0.4133746893545478   F   F   F
  0.8693915134681305  0.7046726296908190  0.4110761538000034   F   F   F
  0.3722983334351397  0.1999970597902703  0.4151451031727262   F   F   F
  0.3697124388402031  0.7023491030932902  0.4050672963454574   F   F   F
  0.6188016946428760  0.4559605928278074  0.4079953928999984   F   F   F
  0.1144871183778307  0.7083569710693283  0.4096619848681797   F   F   F
  0.6244367534976192  0.2025114977081941  0.4111474410636333   F   F   F
  0.5389082845886790  0.3646161599832283  0.3073159605772702   F   F   F
  0.5378525074231248  0.1120613702710358  0.3131627535090900   F   F   F
  0.5375076487171242  0.1169073699596268  0.0531220763272700   F   F   F
  0.1060159474172693  0.4196903701841279  0.1184692797545424   F   F   F
  0.0484531217422202  0.1231268395362335  0.3062477678818212   F   F   F
  0.0245780338318511  0.1097680969569268  0.0430117810681807   F   F   F
  0.1169260853325511  0.9524257744669029  0.1460113291272762   F   F   F
  0.3752627118871033  0.4490316292747636  0.4087472599818156   F   F   F
  0.4507798513754153  0.5618345619141820  0.2220556187454577   F   F   F
  0.6206328990184389  0.7034898197533224  0.4122312692045469   F   F   F
  0.9486300860078885  0.7563834836835071  0.2065586565000004   F   F   F
  0.7978950062741319  0.6154392637634700  0.3125383935636350   F   F   F
  0.2677638140291023  0.6135347554200692  0.3063250322772717   F   F   F
  0.1912446586299481  0.2608944894209628  0.2240584526999996   F   F   F
  0.6997735942738998  0.5388438066433352  0.2217140734181839   F   F   F
  0.0344385487004004  0.6202770022713509  0.3122711981318176   F   F   F
  0.7908872107797080  0.8845713640095454  0.0590154774772742   F   F   F
  0.0431671302096959  0.8645701532281578  0.0570202552818202   F   F   F
  0.0421493158309616  0.6575489276883317  0.0841343607909124   F   F   F
  0.6242636984160299  0.2112047253214158  0.1379027481681803   F   F   F
  0.3765739752082027  0.9544076052521007  0.1361219543000018   F   F   F
  0.0260639555651849  0.3715601358263427  0.3164807620636338   F   F   F
  0.9829997705121372  0.3538927260355891  0.0428426668363642   F   F   F
  0.8658294734042045  0.2056136287451196  0.1348809598181830   F   F   F
  0.9483266235558290  0.5214631290762668  0.2168444122590927   F   F   F
  0.3014971767614512  0.1075395838046944  0.3197185336318213   F   F   F
  0.5402365998810552  0.6308955680163280  0.3178850363318162   F   F   F
  0.2847406250402855  0.1106504997001707  0.0527892048909067   F   F   F
  0.5347394070459259  0.3670804573712871  0.0500104259863647   F   F   F
  0.3590277917235056  0.2092973479906135  0.1353676211954564   F   F   F
  0.1795593542393732  0.6914409692265622  0.1579673919181843   F   F   F
  0.5212171467669151  0.6245286249288711  0.0521856766999989   F   F   F
  0.3151048399582024  0.3737904076315033  0.0562376898136350   F   F   F
  0.6422458949394994  0.9322045230593474  0.1407324841545474   F   F   F
  0.6833132047318244  0.7857360920973733  0.2233291051454529   F   F   F
  0.8295527645934442  0.6808095917866908  0.1286545647090875   F   F   F
  0.6085657030912799  0.4600908835169406  0.1304246345863618   F   F   F
  0.3197658301860145  0.8766164113556627  0.3185647208136331   F   F   F
  0.2872073272789635  0.8837786298990196  0.0528704927409080   F   F   F
  0.6032048154532390  0.7172003307507424  0.1319261668636358   F   F   F
  0.2439096344744200  0.0149315574630435  0.2294272331681810   F   F   F
  0.6976537942059124  0.0566164128909890  0.2220366322545431   F   F   F
  0.7759003928452231  0.1229563667865818  0.3129947877318173   F   F   F
  0.5374675048764601  0.8714829478665678  0.3174652679636338   F   F   F
  0.7741422871075372  0.1303526627281002  0.0510236411136376   F   F   F
  0.5357933357529490  0.8795584207814997  0.0554483186181827   F   F   F
  0.1814597450678335  0.5098063442843568  0.2171239293045488   F   F   F
  0.9349898804628438  0.3002506672727421  0.2236450676863626   F   F   F
  0.8637922699629215  0.9774248099011871  0.1391290802590888   F   F   F
  0.7103683752906917  0.2901671282358720  0.2217569249545477   F   F   F
  0.4576128818555389  0.2618566628464478  0.2213986287363667   F   F   F
  0.8581290774886767  0.4368715359506439  0.1313162540363635   F   F   F
  0.1100745241357401  0.1878027748418276  0.1340892703363608   F   F   F
  0.7528583583272024  0.5916146920990570  0.0478918017818160   F   F   F
  0.3015051675749518  0.6160063720539810  0.0630200835090875   F   F   F
  0.3734188990724761  0.7330867030792589  0.1363920454954552   F   F   F
  0.3936768738036420  0.4342038804354047  0.1433610557727292   F   F   F
  0.7854093537770197  0.3671091054309414  0.3141261030454530   F   F   F
  0.7669098264074421  0.3554787377304791  0.0472348453454572   F   F   F
  0.9208175640634693  0.0708794067542158  0.2271199104590877   F   F   F
  0.4649313895279050  0.7934409722809264  0.2269696011863616   F   F   F
  0.2368418030058024  0.8043381320118073  0.2355582224818207   F   F   F
  0.4569958715132501  0.0304147897165663  0.2234290062500008   F   F   F
  0.1139418585160570  0.5871737036071423  0.4561010598681812   T   T   T
 
  0.00000000E+00  0.00000000E+00  0.00000000E+00
  0.00000000E+00  0.00000000E+00  0.00000000E+00
  0.00000000E+00  0.00000000E+00  0.00000000E+00
  0.00000000E+00  0.00000000E+00  0.00000000E+00
  0.00000000E+00  0.00000000E+00  0.00000000E+00
  0.00000000E+00  0.00000000E+00  0.00000000E+00
  0.00000000E+00  0.00000000E+00  0.00000000E+00
  0.00000000E+00  0.00000000E+00  0.00000000E+00
  0.00000000E+00  0.00000000E+00  0.00000000E+00
  0.00000000E+00  0.00000000E+00  0.00000000E+00
  0.00000000E+00  0.00000000E+00  0.00000000E+00
  0.00000000E+00  0.00000000E+00  0.00000000E+00
  0.00000000E+00  0.00000000E+00  0.00000000E+00
  0.00000000E+00  0.00000000E+00  0.00000000E+00
  0.00000000E+00  0.00000000E+00  0.00000000E+00
  0.00000000E+00  0.00000000E+00  0.00000000E+00
  0.00000000E+00  0.00000000E+00  0.00000000E+00
  0.00000000E+00  0.00000000E+00  0.00000000E+00
  0.00000000E+00  0.00000000E+00  0.00000000E+00
  0.00000000E+00  0.00000000E+00  0.00000000E+00
  0.00000000E+00  0.00000000E+00  0.00000000E+00
  0.00000000E+00  0.00000000E+00  0.00000000E+00
  0.00000000E+00  0.00000000E+00  0.00000000E+00
  0.00000000E+00  0.00000000E+00  0.00000000E+00
  0.00000000E+00  0.00000000E+00  0.00000000E+00
  0.00000000E+00  0.00000000E+00  0.00000000E+00
  0.00000000E+00  0.00000000E+00  0.00000000E+00
  0.00000000E+00  0.00000000E+00  0.00000000E+00
  0.00000000E+00  0.00000000E+00  0.00000000E+00
  0.00000000E+00  0.00000000E+00  0.00000000E+00
  0.00000000E+00  0.00000000E+00  0.00000000E+00
  0.00000000E+00  0.00000000E+00  0.00000000E+00
  0.00000000E+00  0.00000000E+00  0.00000000E+00
  0.00000000E+00  0.00000000E+00  0.00000000E+00
  0.00000000E+00  0.00000000E+00  0.00000000E+00
  0.00000000E+00  0.00000000E+00  0.00000000E+00
  0.00000000E+00  0.00000000E+00  0.00000000E+00
  0.00000000E+00  0.00000000E+00  0.00000000E+00
  0.00000000E+00  0.00000000E+00  0.00000000E+00
  0.00000000E+00  0.00000000E+00  0.00000000E+00
  0.00000000E+00  0.00000000E+00  0.00000000E+00
  0.00000000E+00  0.00000000E+00  0.00000000E+00
  0.00000000E+00  0.00000000E+00  0.00000000E+00
  0.00000000E+00  0.00000000E+00  0.00000000E+00
  0.00000000E+00  0.00000000E+00  0.00000000E+00
  0.00000000E+00  0.00000000E+00  0.00000000E+00
  0.00000000E+00  0.00000000E+00  0.00000000E+00
  0.00000000E+00  0.00000000E+00  0.00000000E+00
  0.00000000E+00  0.00000000E+00  0.00000000E+00
  0.00000000E+00  0.00000000E+00  0.00000000E+00
  0.00000000E+00  0.00000000E+00  0.00000000E+00
  0.00000000E+00  0.00000000E+00  0.00000000E+00
  0.00000000E+00  0.00000000E+00  0.00000000E+00
  0.00000000E+00  0.00000000E+00  0.00000000E+00
  0.00000000E+00  0.00000000E+00  0.00000000E+00
  0.00000000E+00  0.00000000E+00  0.00000000E+00
  0.00000000E+00  0.00000000E+00  0.00000000E+00
  0.00000000E+00  0.00000000E+00  0.00000000E+00
  0.00000000E+00  0.00000000E+00  0.00000000E+00
  0.00000000E+00  0.00000000E+00  0.00000000E+00
  0.00000000E+00  0.00000000E+00  0.00000000E+00
  0.00000000E+00  0.00000000E+00  0.00000000E+00
  0.00000000E+00  0.00000000E+00  0.00000000E+00
  0.00000000E+00  0.00000000E+00  0.00000000E+00
  0.00000000E+00  0.00000000E+00  0.00000000E+00
  0.00000000E+00  0.00000000E+00  0.00000000E+00
  0.00000000E+00  0.00000000E+00  0.00000000E+00
  0.00000000E+00  0.00000000E+00  0.00000000E+00
  0.00000000E+00  0.00000000E+00  0.00000000E+00
  0.00000000E+00  0.00000000E+00  0.00000000E+00
  0.00000000E+00  0.00000000E+00  0.00000000E+00
  0.00000000E+00  0.00000000E+00  0.00000000E+00
  0.00000000E+00  0.00000000E+00  0.00000000E+00
  0.00000000E+00  0.00000000E+00  0.00000000E+00
  0.00000000E+00  0.00000000E+00  0.00000000E+00
  0.00000000E+00  0.00000000E+00  0.00000000E+00
  0.00000000E+00  0.00000000E+00  0.00000000E+00
  0.00000000E+00  0.00000000E+00  0.00000000E+00
  0.00000000E+00  0.00000000E+00  0.00000000E+00
  0.00000000E+00  0.00000000E+00  0.00000000E+00
  0.00000000E+00  0.00000000E+00  0.00000000E+00
