11.26                                   
   1.00000000000000     
    11.2227001190000006    0.0000000000000000    0.0000000000000000
     5.6113500595000003    9.7191434021000003    0.0000000000000000
     0.0000000000000000    0.0000000000000000   22.0000000000000000
   Pt   Co   Ni   H 
    32    23    25     1
Selective dynamics
Direct
  0.7898895827087340  0.8784784651229851  0.3016281069783814   T   T   T
  0.0322039086674816  0.8800101255596067  0.2933540798110339   T   T   T
  0.2764071996732477  0.3617422817938961  0.3108717294591344   T   T   T
  0.8718128381264107  0.9659654222650478  0.4016240652745208   T   T   T
  0.1142341529450435  0.4662039324267862  0.4103020266266597   T   T   T
  0.1309203585586616  0.9556266691511699  0.3995906286813523   T   T   T
  0.8734486586799622  0.4552658664095370  0.4122926983744551   T   T   T
  0.3758793107843463  0.9536669032140933  0.4152544517404795   T   T   T
  0.8624940265262209  0.2143329911142418  0.3964483280972747   T   T   T
  0.1290577478925136  0.2130057862748820  0.4131119347066955   T   T   T
  0.6284678406191399  0.9516838646630728  0.4096745456308385   T   T   T
  0.8750915800138954  0.7123169965119041  0.4086468725396160   T   T   T
  0.3776015851657223  0.2003376611611955  0.4133029332564125   T   T   T
  0.3761436082017640  0.6996258385619936  0.4007540884104627   T   T   T
  0.6186687767756838  0.4583636944190937  0.3989815230017800   T   T   T
  0.1216528221215482  0.7054256630704898  0.4036492865147270   T   T   T
  0.6255463870722660  0.2023554075773714  0.4042294060393322   T   T   T
  0.5383190015332484  0.3471932941660240  0.3008070998623211   T   T   T
  0.5275980706788631  0.1128108644016211  0.3084677364385106   T   T   T
  0.5456924111831540  0.1264773896570333  0.0668330444500000   F   F   F
  0.1179165896219203  0.4079249947421673  0.1190886190954572   F   F   F
  0.0538571286926743  0.1475887519056866  0.3105271927323323   T   T   T
  0.0089289541086117  0.1017685166149818  0.0491765075181831   F   F   F
  0.1378320738526071  0.9269114493519552  0.1419736841636379   F   F   F
  0.3747719940065183  0.4514082662385910  0.4062903554151888   T   T   T
  0.4797971570719426  0.5539988047029567  0.2297174711863619   F   F   F
  0.6259473025519220  0.7077795199440756  0.4136313172926174   T   T   T
  0.9525234537930558  0.7589897745830285  0.2042040527636360   F   F   F
  0.7966579837001729  0.6313228831627795  0.3107206625864243   T   T   T
  0.2733667489385734  0.6080686774194785  0.3027771731732606   T   T   T
  0.1874902960314415  0.2619820637330932  0.2253988999272707   F   F   F
  0.7108920581928047  0.5610073442297292  0.2141021541772758   F   F   F
  0.0419757651812083  0.6091585104375573  0.3047858056779376   T   T   T
  0.7819683701955427  0.8836707209448420  0.0801259714954554   F   F   F
  0.0016786040756998  0.8657086972172863  0.0717220294954544   F   F   F
  0.0064947452574984  0.6568619922019678  0.0936782229045434   F   F   F
  0.6278902107001798  0.2337904024246669  0.1497297419681800   F   F   F
  0.3605011249257544  0.9423524271924038  0.1347041508181803   F   F   F
  0.0237174162896951  0.3957429465862040  0.3162760244384886   T   T   T
  0.0129609727070417  0.3213949785765138  0.0444243323545450   F   F   F
  0.8442397035971254  0.2276131851930501  0.1389197702363631   F   F   F
  0.9674460336454942  0.5204864880486255  0.2188500749409101   F   F   F
  0.3029770136963864  0.0987807339651846  0.3192023672634875   T   T   T
  0.5523741625736059  0.6476414100060649  0.3169959161197393   T   T   T
  0.2508545359252849  0.0912810139428828  0.0487872830227261   F   F   F
  0.5291378415644843  0.6116220387812774  0.0469794814590898   F   F   F
  0.3338924189020531  0.3612659424843301  0.0722196333181842   F   F   F
  0.5814733168765329  0.9365131401840756  0.1369430198363659   F   F   F
  0.6773266661753325  0.8092123915571250  0.2230530417863648   F   F   F
  0.8097944659668883  0.6790648121082299  0.1402434814090938   F   F   F
  0.6293781667954050  0.4536695041506746  0.1332572430909096   F   F   F
  0.3216234934327388  0.8720420235442563  0.3164751196442985   T   T   T
  0.2991981285917618  0.8498356801809663  0.0500064375045426   F   F   F
  0.5810344788006034  0.7261254454662236  0.1239217899045428   F   F   F
  0.2290723421035281  0.0129455240441061  0.2296757311181850   F   F   F
  0.5487186473537591  0.3606903691062442  0.0554524207318181   F   F   F
  0.3441165493717691  0.1669096226370641  0.1316441221863656   F   F   F
  0.1755439985883172  0.6842061655827791  0.1476189425363614   F   F   F
  0.6608263512248982  0.0424903716114287  0.2130448247909058   F   F   F
  0.7849119329530408  0.1159485392257981  0.2967909407406301   T   T   T
  0.5364754221871485  0.8740984398243358  0.3160227908605141   T   T   T
  0.7728439665680398  0.1227826303336741  0.0604845839136345   F   F   F
  0.5003074210799383  0.8984495284649512  0.0445551465727263   F   F   F
  0.1957150797376812  0.5052286738087446  0.2143863590590911   F   F   F
  0.9354617673556689  0.3154204577882496  0.2255271175500013   F   F   F
  0.8582446837676017  0.0019510069473725  0.1561197289090899   F   F   F
  0.7210428981411425  0.3149762791995201  0.2296972617681803   F   F   F
  0.4300228872279135  0.2657770050025050  0.2137706572090892   F   F   F
  0.8770375531629568  0.4295574328801379  0.1287836487363663   F   F   F
  0.0963481931919432  0.1806982179952712  0.1396927366863636   F   F   F
  0.7598886996324694  0.5886779948286147  0.0515561146681804   F   F   F
  0.3152737423209686  0.5915166876494311  0.0592523364318183   F   F   F
  0.3817921641394761  0.7012659040432894  0.1364658375045451   F   F   F
  0.4004265753919469  0.4537703161625402  0.1488472664727283   F   F   F
  0.7906827062283172  0.4015080798160618  0.3137012895783010   T   T   T
  0.7808992644723389  0.3514802091058655  0.0459807957863632   F   F   F
  0.9695440421590007  0.0843031522842779  0.2219682032818184   F   F   F
  0.4648689818808052  0.7946388815429231  0.2253314380545461   F   F   F
  0.2489049567848340  0.7859896227119592  0.2326762259318187   F   F   F
  0.4386220550658777  0.0277131730808478  0.2245019522090885   F   F   F
  0.0369940726304513  0.8777789165283232  0.4395292807710284   T   T   T
 
  0.00000000E+00  0.00000000E+00  0.00000000E+00
  0.00000000E+00  0.00000000E+00  0.00000000E+00
  0.00000000E+00  0.00000000E+00  0.00000000E+00
  0.00000000E+00  0.00000000E+00  0.00000000E+00
  0.00000000E+00  0.00000000E+00  0.00000000E+00
  0.00000000E+00  0.00000000E+00  0.00000000E+00
  0.00000000E+00  0.00000000E+00  0.00000000E+00
  0.00000000E+00  0.00000000E+00  0.00000000E+00
  0.00000000E+00  0.00000000E+00  0.00000000E+00
  0.00000000E+00  0.00000000E+00  0.00000000E+00
  0.00000000E+00  0.00000000E+00  0.00000000E+00
  0.00000000E+00  0.00000000E+00  0.00000000E+00
  0.00000000E+00  0.00000000E+00  0.00000000E+00
  0.00000000E+00  0.00000000E+00  0.00000000E+00
  0.00000000E+00  0.00000000E+00  0.00000000E+00
  0.00000000E+00  0.00000000E+00  0.00000000E+00
  0.00000000E+00  0.00000000E+00  0.00000000E+00
  0.00000000E+00  0.00000000E+00  0.00000000E+00
  0.00000000E+00  0.00000000E+00  0.00000000E+00
  0.00000000E+00  0.00000000E+00  0.00000000E+00
  0.00000000E+00  0.00000000E+00  0.00000000E+00
  0.00000000E+00  0.00000000E+00  0.00000000E+00
  0.00000000E+00  0.00000000E+00  0.00000000E+00
  0.00000000E+00  0.00000000E+00  0.00000000E+00
  0.00000000E+00  0.00000000E+00  0.00000000E+00
  0.00000000E+00  0.00000000E+00  0.00000000E+00
  0.00000000E+00  0.00000000E+00  0.00000000E+00
  0.00000000E+00  0.00000000E+00  0.00000000E+00
  0.00000000E+00  0.00000000E+00  0.00000000E+00
  0.00000000E+00  0.00000000E+00  0.00000000E+00
  0.00000000E+00  0.00000000E+00  0.00000000E+00
  0.00000000E+00  0.00000000E+00  0.00000000E+00
  0.00000000E+00  0.00000000E+00  0.00000000E+00
  0.00000000E+00  0.00000000E+00  0.00000000E+00
  0.00000000E+00  0.00000000E+00  0.00000000E+00
  0.00000000E+00  0.00000000E+00  0.00000000E+00
  0.00000000E+00  0.00000000E+00  0.00000000E+00
  0.00000000E+00  0.00000000E+00  0.00000000E+00
  0.00000000E+00  0.00000000E+00  0.00000000E+00
  0.00000000E+00  0.00000000E+00  0.00000000E+00
  0.00000000E+00  0.00000000E+00  0.00000000E+00
  0.00000000E+00  0.00000000E+00  0.00000000E+00
  0.00000000E+00  0.00000000E+00  0.00000000E+00
  0.00000000E+00  0.00000000E+00  0.00000000E+00
  0.00000000E+00  0.00000000E+00  0.00000000E+00
  0.00000000E+00  0.00000000E+00  0.00000000E+00
  0.00000000E+00  0.00000000E+00  0.00000000E+00
  0.00000000E+00  0.00000000E+00  0.00000000E+00
  0.00000000E+00  0.00000000E+00  0.00000000E+00
  0.00000000E+00  0.00000000E+00  0.00000000E+00
  0.00000000E+00  0.00000000E+00  0.00000000E+00
  0.00000000E+00  0.00000000E+00  0.00000000E+00
  0.00000000E+00  0.00000000E+00  0.00000000E+00
  0.00000000E+00  0.00000000E+00  0.00000000E+00
  0.00000000E+00  0.00000000E+00  0.00000000E+00
  0.00000000E+00  0.00000000E+00  0.00000000E+00
  0.00000000E+00  0.00000000E+00  0.00000000E+00
  0.00000000E+00  0.00000000E+00  0.00000000E+00
  0.00000000E+00  0.00000000E+00  0.00000000E+00
  0.00000000E+00  0.00000000E+00  0.00000000E+00
  0.00000000E+00  0.00000000E+00  0.00000000E+00
  0.00000000E+00  0.00000000E+00  0.00000000E+00
  0.00000000E+00  0.00000000E+00  0.00000000E+00
  0.00000000E+00  0.00000000E+00  0.00000000E+00
  0.00000000E+00  0.00000000E+00  0.00000000E+00
  0.00000000E+00  0.00000000E+00  0.00000000E+00
  0.00000000E+00  0.00000000E+00  0.00000000E+00
  0.00000000E+00  0.00000000E+00  0.00000000E+00
  0.00000000E+00  0.00000000E+00  0.00000000E+00
  0.00000000E+00  0.00000000E+00  0.00000000E+00
  0.00000000E+00  0.00000000E+00  0.00000000E+00
  0.00000000E+00  0.00000000E+00  0.00000000E+00
  0.00000000E+00  0.00000000E+00  0.00000000E+00
  0.00000000E+00  0.00000000E+00  0.00000000E+00
  0.00000000E+00  0.00000000E+00  0.00000000E+00
  0.00000000E+00  0.00000000E+00  0.00000000E+00
  0.00000000E+00  0.00000000E+00  0.00000000E+00
  0.00000000E+00  0.00000000E+00  0.00000000E+00
  0.00000000E+00  0.00000000E+00  0.00000000E+00
  0.00000000E+00  0.00000000E+00  0.00000000E+00
  0.00000000E+00  0.00000000E+00  0.00000000E+00
