Pt   H                                  
   1.00000000000000     
    11.2227001190000006    0.0000000000000000    0.0000000000000000
     5.6113500595000003    9.7191434021000003    0.0000000000000000
     0.0000000000000000    0.0000000000000000   22.0000000000000000
   Pt   H 
    80    16
Direct
  0.7844697157920330  0.8697529320380166  0.3262480372214710
  0.0343337617827855  0.8697764197682148  0.3262370279390422
  0.0342600013919778  0.6200351589094003  0.3263228891699955
  0.7850443368611129  0.8692967617600305  0.0209284269583837
  0.0344263639251828  0.8693045342851685  0.0209362447856930
  0.0345006033287469  0.6197639919316787  0.0211649745551952
  0.6178923967834817  0.2026717360764924  0.1242983008282698
  0.3677628167005273  0.9531524866397117  0.1242485206274643
  0.0352654223274665  0.3694505101052822  0.3259829817893302
  0.0350488215079012  0.3687297171265528  0.0212874311222155
  0.8681310076868182  0.2026925342802322  0.1242935638729392
  0.9510508598965577  0.5366031066350843  0.2245804832660845
  0.2843161403882696  0.1199471120021220  0.3266228523007782
  0.5340051041226140  0.6206102197991071  0.3243009129905090
  0.2838216186430815  0.3693843558161465  0.3259249591012549
  0.2843658062926571  0.1199165806611287  0.0215284979884168
  0.5348506660676285  0.6190768528237565  0.0208596728743330
  0.2849704651726709  0.3687245762734748  0.0212753417325265
  0.6179180007140527  0.9529607056035000  0.1243200044796745
  0.7014283702931341  0.7862800617016822  0.2243871845693687
  0.8679587214154513  0.7030011446388993  0.1243377040361995
  0.6180275831443622  0.4526460615818837  0.1239150459006144
  0.2837158930786424  0.8709678176403632  0.3256090593440194
  0.2846163281646674  0.8692569331845900  0.0210433115983827
  0.6178198298551075  0.7031563712490080  0.1240316777555966
  0.2013005937659122  0.0360706585490283  0.2248629546727646
  0.8676399169561729  0.9531831454615742  0.4320521467356107
  0.1174131349989066  0.4536236748336613  0.4321690889119295
  0.1184531126235083  0.9523869511631238  0.4321544409067298
  0.8627090595690576  0.4552656952088064  0.4302957315250471
  0.3684860345514868  0.9515322056317452  0.4320403593558889
  0.8660201537132053  0.2057444353872781  0.4324692724302740
  0.1168652851485372  0.2038160745676785  0.4323197352988212
  0.6176108720741376  0.9523753597032699  0.4321584455203245
  0.8665748901257870  0.7019648813579856  0.4324048465619678
  0.3678227328930413  0.2038674645158388  0.4323030630668097
  0.3718008978101642  0.6979365805017658  0.4298601609895961
  0.6159489772468795  0.4567470114905692  0.4274505494282818
  0.1198838661841791  0.7019830241669683  0.4323689898188974
  0.6167552113524245  0.2057031454847747  0.4323785875554035
  0.5340446979400822  0.3689270562078874  0.3249098501983281
  0.5348004546823582  0.3692819996356536  0.0209358640572941
  0.5344839985966854  0.1196112938176941  0.3264443410414847
  0.5343393215237923  0.1194709610135930  0.0213729102394603
  0.8683238711808590  0.4526648680019716  0.1241257306510274
  0.1178850398435365  0.4529136399581949  0.1243378687983435
  0.0344190733228185  0.1196598264251800  0.3264769190057086
  0.0349495869613447  0.1194843954903577  0.0213854210740595
  0.1178215242008902  0.9529750025254099  0.1243138653351254
  0.3705005553769528  0.4552924122093885  0.4301371503623632
  0.4509975408701331  0.5365019397847373  0.2238410316094298
  0.6187811462438563  0.6978092412675712  0.4300641650791123
  0.3678378612617663  0.2027752027967636  0.1250399215067116
  0.1180287130615026  0.2028375380919640  0.1250812120729452
  0.9511082107918409  0.7864273300442602  0.2246170158734004
  0.7845928303026889  0.6201304049921494  0.3254997009391893
  0.2838182743889312  0.6201269568818985  0.3254285137625101
  0.7846337395510702  0.6196944254750971  0.0211144086965067
  0.2844440866870031  0.6196525791729453  0.0211140732852397
  0.3677110774313500  0.7031613517988647  0.1240107128703725
  0.3677040745897298  0.4526343816618943  0.1241198075546000
  0.2009321923582074  0.2867563835803315  0.2250248119153653
  0.7855975365474280  0.3689424405517916  0.3249341778780416
  0.7846684572740587  0.3692841319469808  0.0209289636233065
  0.9512225377826480  0.0362409319297394  0.2247196153340668
  0.4512004940223729  0.7862165705532007  0.2241407034326820
  0.7011469106982308  0.5365280365614342  0.2238503880098744
  0.2009080300861353  0.7863024099922641  0.2243558272380792
  0.4512769209995612  0.0360235442640747  0.2248598410626709
  0.1177519567602884  0.7029760494603408  0.1243261962854196
  0.7012176032610546  0.0362168690878722  0.2247218918660458
  0.7844780956676876  0.1196467668452862  0.3262748208401863
  0.5339422794669705  0.8708667687927133  0.3256605085460620
  0.7849633462466237  0.1187857693708933  0.0212820001804353
  0.5348741689557646  0.8692413518456609  0.0210577134390765
  0.2009825002576784  0.5366175363709625  0.2245606275845870
  0.9505510593149290  0.2864591262846504  0.2247593042880917
  0.8679936866835135  0.9527427501342839  0.1244436583826810
  0.7013310294986825  0.2859908890020225  0.2242186832227717
  0.4516390627429925  0.2864064592743039  0.2247169352653067
  0.5244625454133977  0.5222713446743784  0.5503599832206592
  0.5910701196539011  0.5187848249680853  0.5592034833855836
  0.2055971874916140  0.7837419744924751  0.4718463126494661
  0.4532071563920950  0.7823199092711036  0.4714885439618668
  0.6990669496954020  0.7837057462580614  0.4719110777331390
  0.9513493377560707  0.7857830487285228  0.4721290944130244
  0.2048381084957223  0.5351665167645664  0.4721399542090958
  0.9485656405163938  0.5351510326542323  0.4722031656712291
  0.2007837594436469  0.2870075576211293  0.4729471552094015
  0.4499148424383684  0.2908539373742513  0.4724731687169998
  0.7000857358246390  0.2884166054278910  0.4716733238423670
  0.9479246019785020  0.2907154367444891  0.4725484067866071
  0.2011770854689700  0.0359108475455623  0.4727361250436009
  0.4513574130008465  0.0359975347443046  0.4727286995022628
  0.7009477305633057  0.0364467547812094  0.4723366662215249
  0.9510738970397025  0.0363964535160423  0.4723602865585491
 
  0.00000000E+00  0.00000000E+00  0.00000000E+00
  0.00000000E+00  0.00000000E+00  0.00000000E+00
  0.00000000E+00  0.00000000E+00  0.00000000E+00
  0.00000000E+00  0.00000000E+00  0.00000000E+00
  0.00000000E+00  0.00000000E+00  0.00000000E+00
  0.00000000E+00  0.00000000E+00  0.00000000E+00
  0.00000000E+00  0.00000000E+00  0.00000000E+00
  0.00000000E+00  0.00000000E+00  0.00000000E+00
  0.00000000E+00  0.00000000E+00  0.00000000E+00
  0.00000000E+00  0.00000000E+00  0.00000000E+00
  0.00000000E+00  0.00000000E+00  0.00000000E+00
  0.00000000E+00  0.00000000E+00  0.00000000E+00
  0.00000000E+00  0.00000000E+00  0.00000000E+00
  0.00000000E+00  0.00000000E+00  0.00000000E+00
  0.00000000E+00  0.00000000E+00  0.00000000E+00
  0.00000000E+00  0.00000000E+00  0.00000000E+00
  0.00000000E+00  0.00000000E+00  0.00000000E+00
  0.00000000E+00  0.00000000E+00  0.00000000E+00
  0.00000000E+00  0.00000000E+00  0.00000000E+00
  0.00000000E+00  0.00000000E+00  0.00000000E+00
  0.00000000E+00  0.00000000E+00  0.00000000E+00
  0.00000000E+00  0.00000000E+00  0.00000000E+00
  0.00000000E+00  0.00000000E+00  0.00000000E+00
  0.00000000E+00  0.00000000E+00  0.00000000E+00
  0.00000000E+00  0.00000000E+00  0.00000000E+00
  0.00000000E+00  0.00000000E+00  0.00000000E+00
  0.00000000E+00  0.00000000E+00  0.00000000E+00
  0.00000000E+00  0.00000000E+00  0.00000000E+00
  0.00000000E+00  0.00000000E+00  0.00000000E+00
  0.00000000E+00  0.00000000E+00  0.00000000E+00
  0.00000000E+00  0.00000000E+00  0.00000000E+00
  0.00000000E+00  0.00000000E+00  0.00000000E+00
  0.00000000E+00  0.00000000E+00  0.00000000E+00
  0.00000000E+00  0.00000000E+00  0.00000000E+00
  0.00000000E+00  0.00000000E+00  0.00000000E+00
  0.00000000E+00  0.00000000E+00  0.00000000E+00
  0.00000000E+00  0.00000000E+00  0.00000000E+00
  0.00000000E+00  0.00000000E+00  0.00000000E+00
  0.00000000E+00  0.00000000E+00  0.00000000E+00
  0.00000000E+00  0.00000000E+00  0.00000000E+00
  0.00000000E+00  0.00000000E+00  0.00000000E+00
  0.00000000E+00  0.00000000E+00  0.00000000E+00
  0.00000000E+00  0.00000000E+00  0.00000000E+00
  0.00000000E+00  0.00000000E+00  0.00000000E+00
  0.00000000E+00  0.00000000E+00  0.00000000E+00
  0.00000000E+00  0.00000000E+00  0.00000000E+00
  0.00000000E+00  0.00000000E+00  0.00000000E+00
  0.00000000E+00  0.00000000E+00  0.00000000E+00
  0.00000000E+00  0.00000000E+00  0.00000000E+00
  0.00000000E+00  0.00000000E+00  0.00000000E+00
  0.00000000E+00  0.00000000E+00  0.00000000E+00
  0.00000000E+00  0.00000000E+00  0.00000000E+00
  0.00000000E+00  0.00000000E+00  0.00000000E+00
  0.00000000E+00  0.00000000E+00  0.00000000E+00
  0.00000000E+00  0.00000000E+00  0.00000000E+00
  0.00000000E+00  0.00000000E+00  0.00000000E+00
  0.00000000E+00  0.00000000E+00  0.00000000E+00
  0.00000000E+00  0.00000000E+00  0.00000000E+00
  0.00000000E+00  0.00000000E+00  0.00000000E+00
  0.00000000E+00  0.00000000E+00  0.00000000E+00
  0.00000000E+00  0.00000000E+00  0.00000000E+00
  0.00000000E+00  0.00000000E+00  0.00000000E+00
  0.00000000E+00  0.00000000E+00  0.00000000E+00
  0.00000000E+00  0.00000000E+00  0.00000000E+00
  0.00000000E+00  0.00000000E+00  0.00000000E+00
  0.00000000E+00  0.00000000E+00  0.00000000E+00
  0.00000000E+00  0.00000000E+00  0.00000000E+00
  0.00000000E+00  0.00000000E+00  0.00000000E+00
  0.00000000E+00  0.00000000E+00  0.00000000E+00
  0.00000000E+00  0.00000000E+00  0.00000000E+00
  0.00000000E+00  0.00000000E+00  0.00000000E+00
  0.00000000E+00  0.00000000E+00  0.00000000E+00
  0.00000000E+00  0.00000000E+00  0.00000000E+00
  0.00000000E+00  0.00000000E+00  0.00000000E+00
  0.00000000E+00  0.00000000E+00  0.00000000E+00
  0.00000000E+00  0.00000000E+00  0.00000000E+00
  0.00000000E+00  0.00000000E+00  0.00000000E+00
  0.00000000E+00  0.00000000E+00  0.00000000E+00
  0.00000000E+00  0.00000000E+00  0.00000000E+00
  0.00000000E+00  0.00000000E+00  0.00000000E+00
  0.00000000E+00  0.00000000E+00  0.00000000E+00
  0.00000000E+00  0.00000000E+00  0.00000000E+00
  0.00000000E+00  0.00000000E+00  0.00000000E+00
  0.00000000E+00  0.00000000E+00  0.00000000E+00
  0.00000000E+00  0.00000000E+00  0.00000000E+00
  0.00000000E+00  0.00000000E+00  0.00000000E+00
  0.00000000E+00  0.00000000E+00  0.00000000E+00
  0.00000000E+00  0.00000000E+00  0.00000000E+00
  0.00000000E+00  0.00000000E+00  0.00000000E+00
  0.00000000E+00  0.00000000E+00  0.00000000E+00
  0.00000000E+00  0.00000000E+00  0.00000000E+00
  0.00000000E+00  0.00000000E+00  0.00000000E+00
  0.00000000E+00  0.00000000E+00  0.00000000E+00
  0.00000000E+00  0.00000000E+00  0.00000000E+00
  0.00000000E+00  0.00000000E+00  0.00000000E+00
  0.00000000E+00  0.00000000E+00  0.00000000E+00
