Pt   Fe   Co   Cu   Ni   H              
   1.00000000000000     
    10.5600004195999997    0.0000000000000000    0.0000000000000000
     5.2800002097999998    9.1452286273999999    0.0000000000000000
     0.0000000000000000    0.0000000000000000   22.0000000000000000
   Pt   Fe   Co   Cu   Ni   H 
    32    13    10    13    12     2
Selective dynamics
Direct
  0.7884165564419849  0.8796218017943604  0.3181147487650965   T   T   T
  0.0426362980981091  0.8833491121156521  0.3162433940574117   T   T   T
  0.2804003714837094  0.3793971115159225  0.3196897809548505   T   T   T
  0.8732065318901308  0.9601578868613427  0.4284867111780682   T   T   T
  0.1211722442858329  0.4647242551421893  0.4272919201372777   T   T   T
  0.1283778891300054  0.9588463379793126  0.4238946317114217   T   T   T
  0.8736167665687770  0.4607948043430660  0.4262852443818937   T   T   T
  0.3769821100779182  0.9567505638312432  0.4185542855711428   T   T   T
  0.8738697578171577  0.2138177368175625  0.4222456906004254   T   T   T
  0.1253230837199489  0.2108288351718648  0.4254643701547866   T   T   T
  0.6262519578722897  0.9592427594521451  0.4235881358659939   T   T   T
  0.8747423764561781  0.7098791708533051  0.4268800023566524   T   T   T
  0.3783981955406679  0.2079589834521353  0.4291136168744742   T   T   T
  0.3767306196069232  0.7109880485513941  0.4240744783222891   T   T   T
  0.6262850792384396  0.4613928881141195  0.4224878005480200   T   T   T
  0.1265662344722486  0.7080634724020256  0.4259396474535421   T   T   T
  0.6244436141021782  0.2110522650852604  0.4212648208343647   T   T   T
  0.5488631581263204  0.3750861889817839  0.3168180994740288   T   T   T
  0.5341782483344328  0.1243267778332383  0.3159535260166901   T   T   T
  0.5470002567308042  0.1235332521939583  0.0399417999772709   F   F   F
  0.1208089481832886  0.4601783015999316  0.1280394984818187   F   F   F
  0.0434431076007987  0.1369762545394205  0.3151740111327904   T   T   T
  0.0424414900706935  0.1302099981111695  0.0329802953681835   F   F   F
  0.1304832192178935  0.9579853651937354  0.1318324513636355   F   F   F
  0.3766857978884759  0.4621893473824009  0.4261106893042075   T   T   T
  0.4545409546936767  0.5457192756283076  0.2188518203000029   F   F   F
  0.6239557317120823  0.7108147388040895  0.4236092301051516   T   T   T
  0.9557150112739734  0.7901309279847196  0.2210448635636339   F   F   F
  0.7949081977283872  0.6226746244518745  0.3188802482238434   T   T   T
  0.2917188396307602  0.6312022353594967  0.3181954193769697   T   T   T
  0.2026302282546481  0.2805717472619945  0.2254649220954547   F   F   F
  0.7064516142104934  0.5493905794598390  0.2207507679909070   F   F   F
  0.0411392404940287  0.6303134995280425  0.3252905728947251   T   T   T
  0.7973180911857651  0.8616265572072658  0.0420760910772699   F   F   F
  0.0560985910286496  0.8657185943694539  0.0377408024136372   F   F   F
  0.0464128728304588  0.6281990126400241  0.0369911384090926   F   F   F
  0.6273755757405439  0.2222416784103771  0.1287505962318178   F   F   F
  0.3821141315863985  0.9550040284758832  0.1298830475227248   F   F   F
  0.0366844221699411  0.3830510646537855  0.3247170508456731   T   T   T
  0.0311405267529068  0.3816759960316460  0.0375046088681827   F   F   F
  0.8722404389362308  0.2153943248393162  0.1282949969590916   F   F   F
  0.9547121146441950  0.5451880757537140  0.2238905465227247   F   F   F
  0.2960430971420413  0.1163721587426339  0.3215067991313207   T   T   T
  0.5408805217499593  0.6294075267163897  0.3217837668903911   T   T   T
  0.2952537777580275  0.1193869715983666  0.0394092290045478   F   F   F
  0.5482511333458362  0.6253176515966242  0.0436557828227250   F   F   F
  0.2955313611175672  0.3794825008859988  0.0388921565772762   F   F   F
  0.6254873592728033  0.9499576153264397  0.1320861515409106   F   F   F
  0.7063418941412323  0.7943482474494772  0.2201040810409082   F   F   F
  0.8657230808985467  0.7055915708183347  0.1288086150363625   F   F   F
  0.6261967559749806  0.4601083651744914  0.1271035316954538   F   F   F
  0.2985792421053524  0.8748111053398688  0.3175670134444075   T   T   T
  0.3058183792080128  0.8681273535812224  0.0402965921590876   F   F   F
  0.6267113460374674  0.7146527937769135  0.1282718373772695   F   F   F
  0.2238985663333324  0.0282395707665799  0.2273103066590920   F   F   F
  0.5426930146679965  0.3810225683434537  0.0346170130500027   F   F   F
  0.3782499856614123  0.2053095451189151  0.1325912588909119   F   F   F
  0.1361840205679030  0.7049738332493614  0.1317829863318209   F   F   F
  0.7048694108137141  0.0502839582186283  0.2203633218772722   F   F   F
  0.7939936991186307  0.1297763081938492  0.3176037765130708   T   T   T
  0.5392802443107599  0.8728314343134047  0.3163689819973100   T   T   T
  0.7965506180334998  0.1231154660613569  0.0345346489227296   F   F   F
  0.5461463374708515  0.8704875427114658  0.0358963983818157   F   F   F
  0.2072223479328272  0.5428206522718000  0.2241705479818207   F   F   F
  0.9515132437870615  0.2967218890154156  0.2212922910363630   F   F   F
  0.8718576990639662  0.9638570180181530  0.1289765751136329   F   F   F
  0.7142109858849462  0.2900443576175674  0.2233456813409091   F   F   F
  0.4576441344000982  0.2914717494993722  0.2208305283954530   F   F   F
  0.8758100826533664  0.4565068959120068  0.1279466825136381   F   F   F
  0.1276916528005785  0.2069238958586864  0.1287633622272750   F   F   F
  0.7922909547091166  0.6217683887271619  0.0402482253999992   F   F   F
  0.2978485906287958  0.6254074402977565  0.0420896375636346   F   F   F
  0.3856750788553356  0.7114654717221425  0.1289187271227305   F   F   F
  0.3820764845414714  0.4516090485180370  0.1264952625681843   F   F   F
  0.7937897322835961  0.3792270034701113  0.3203675962407345   T   T   T
  0.7909247997136186  0.3772595911558838  0.0394562840909103   F   F   F
  0.9555996101362965  0.0529344377623957  0.2214324969818193   F   F   F
  0.4575573979143996  0.7971559299412050  0.2244088666727250   F   F   F
  0.2131500369795705  0.7976872161559068  0.2245790410590942   F   F   F
  0.4623985897484246  0.0302163017414401  0.2220026953545470   F   F   F
  0.9573944061962233  0.0352619325888579  0.4723546579389323   T   T   T
  0.2406575159874674  0.2360023851194774  0.4788583716349288   T   T   T
 
             NaN             NaN             NaN
             NaN             NaN             NaN
             NaN             NaN             NaN
             NaN             NaN             NaN
             NaN             NaN             NaN
             NaN             NaN             NaN
             NaN             NaN             NaN
             NaN             NaN             NaN
             NaN             NaN             NaN
             NaN             NaN             NaN
             NaN             NaN             NaN
             NaN             NaN             NaN
             NaN             NaN             NaN
             NaN             NaN             NaN
             NaN             NaN             NaN
             NaN             NaN             NaN
             NaN             NaN             NaN
             NaN             NaN             NaN
             NaN             NaN             NaN
             NaN             NaN             NaN
             NaN             NaN             NaN
             NaN             NaN             NaN
             NaN             NaN             NaN
             NaN             NaN             NaN
             NaN             NaN             NaN
             NaN             NaN             NaN
             NaN             NaN             NaN
             NaN             NaN             NaN
             NaN             NaN             NaN
             NaN             NaN             NaN
             NaN             NaN             NaN
             NaN             NaN             NaN
             NaN             NaN             NaN
             NaN             NaN             NaN
             NaN             NaN             NaN
             NaN             NaN             NaN
             NaN             NaN             NaN
             NaN             NaN             NaN
             NaN             NaN             NaN
             NaN             NaN             NaN
             NaN             NaN             NaN
             NaN             NaN             NaN
             NaN             NaN             NaN
             NaN             NaN             NaN
             NaN             NaN             NaN
             NaN             NaN             NaN
             NaN             NaN             NaN
             NaN             NaN             NaN
             NaN             NaN             NaN
             NaN             NaN             NaN
             NaN             NaN             NaN
             NaN             NaN             NaN
             NaN             NaN             NaN
             NaN             NaN             NaN
             NaN             NaN             NaN
             NaN             NaN             NaN
             NaN             NaN             NaN
             NaN             NaN             NaN
             NaN             NaN             NaN
             NaN             NaN             NaN
             NaN             NaN             NaN
             NaN             NaN             NaN
             NaN             NaN             NaN
             NaN             NaN             NaN
             NaN             NaN             NaN
             NaN             NaN             NaN
             NaN             NaN             NaN
             NaN             NaN             NaN
             NaN             NaN             NaN
             NaN             NaN             NaN
             NaN             NaN             NaN
             NaN             NaN             NaN
             NaN             NaN             NaN
             NaN             NaN             NaN
             NaN             NaN             NaN
             NaN             NaN             NaN
             NaN             NaN             NaN
             NaN             NaN             NaN
             NaN             NaN             NaN
             NaN             NaN             NaN
             NaN             NaN             NaN
             NaN             NaN             NaN
