Pt   H                                  
   1.00000000000000     
    11.2227001190000006    0.0000000000000000    0.0000000000000000
     5.6113500595000003    9.7191434021000003    0.0000000000000000
     0.0000000000000000    0.0000000000000000   22.0000000000000000
   Pt   H 
    80     2
Direct
  0.7850518389856598  0.8690480244405789  0.3269525998154769
  0.0350654387970942  0.8690684628738902  0.3269348029289416
  0.0351075383824783  0.6189223779730753  0.3268411453479166
  0.7859080810115239  0.8685295393703579  0.0229689495012922
  0.0359071120403439  0.8684746731201712  0.0229815752156055
  0.0359886937527637  0.6183961701337134  0.0229852972547328
  0.6189211322308679  0.2019614903742740  0.1260126918497753
  0.3688546604058909  0.9520944751707305  0.1259850935860777
  0.0352042498639142  0.3689295947452127  0.3268726322174710
  0.0360022757903497  0.3683641216474955  0.0230055051361217
  0.8689685092030900  0.2019571455109741  0.1260432221112961
  0.9519751718901143  0.5355287280368127  0.2264286972229474
  0.2849453067156810  0.1191776328223111  0.3269066229113687
  0.5351798327128264  0.6190672704568508  0.3264709530469502
  0.2848353108895638  0.3688076632707322  0.3266483580737961
  0.2859016340158919  0.1184853084093879  0.0230104855987928
  0.5359621705262734  0.6184129097265242  0.0229346470235837
  0.2858178235641189  0.3684530360118526  0.0229798405670049
  0.6189467948839544  0.9520032305328726  0.1260409838580585
  0.7020397797576733  0.7855082588355587  0.2264246648373646
  0.8689345422386523  0.7020688396686403  0.1260223121321438
  0.6189583257669831  0.4519355574023475  0.1259508235061238
  0.2849466856691337  0.8693491035336229  0.3267204552176103
  0.2858821170304112  0.8684544501004423  0.0229741685297232
  0.6189155616564348  0.7020521303538544  0.1259395276301286
  0.2020610684296189  0.0353530730310050  0.2265188166441124
  0.8681658443203278  0.9524667745809589  0.4300853603966747
  0.1181795488327094  0.4524352878574050  0.4299366144065403
  0.1177713273487013  0.9529542130419268  0.4299891024024888
  0.8684561665821259  0.4525487961584463  0.4299181970774024
  0.3681935447616759  0.9528163245668919  0.4299082158021453
  0.8686175703024033  0.2021572385459164  0.4300036727730716
  0.1181436321268330  0.2026154355228480  0.4300712907466315
  0.6181649016340185  0.9527034680600430  0.4299743503984775
  0.8683442712300961  0.7025799199501692  0.4299729438452732
  0.3681015459429198  0.2025749184680389  0.4299662711301196
  0.3671323010652457  0.7034752438646935  0.4289264115611336
  0.6191457550976968  0.4514127089409909  0.4288994509760174
  0.1177597026351310  0.7026218448197584  0.4298642730733185
  0.6182026599724844  0.2021478569979788  0.4298681780073528
  0.5349566349675676  0.3689201968960651  0.3266192960132175
  0.5359805948156070  0.3684349001256741  0.0229634378787406
  0.5350205815236179  0.1189930472250051  0.3268483746487105
  0.5359677616078232  0.1184439638182872  0.0229861365254957
  0.8690445768932539  0.4518973072367775  0.1259812568920913
  0.1188520181560102  0.4519649143142352  0.1260389660348668
  0.0351330432855772  0.1190314372827423  0.3269027767662092
  0.0360298776967760  0.1184780814161183  0.0230506228595476
  0.1188693935246152  0.9520113098935389  0.1260568689246191
  0.3678607276814510  0.4521256040961072  0.4294401848335349
  0.4519564032479784  0.5355550449433942  0.2262426680098528
  0.6186335781575085  0.7030982270793508  0.4293184566932576
  0.3689146242943793  0.2019596723453829  0.1260129529334661
  0.1188589717952837  0.2019577464667738  0.1261534740115235
  0.9519611103271525  0.7855683022174652  0.2264784016791440
  0.7853747558713297  0.6188748356953842  0.3267577885979846
  0.2849701094711065  0.6188893355319709  0.3266493699691064
  0.7859397252777477  0.6184812939862572  0.0229959052393591
  0.2859570230887049  0.6184686439730013  0.0229782345728218
  0.3688833696314927  0.7020623414792267  0.1259336294758483
  0.3688798004939431  0.4519145706755248  0.1259281286680241
  0.2019573901798810  0.2854197251558372  0.2264189454492854
  0.7853757545015164  0.3689358305701848  0.3267116412098625
  0.7858301896987350  0.3684875691341148  0.0229798706878741
  0.9519060866193240  0.0355246168152681  0.2265142565409146
  0.4520047866505578  0.7855157429436000  0.2262789925184338
  0.7019708539717231  0.5355995102939390  0.2262776556623294
  0.2019351527209206  0.7854712288569511  0.2263888017692011
  0.4519217836261037  0.0355713613345236  0.2264328014074337
  0.1188378674116227  0.7020493571246276  0.1259979543625734
  0.7020120145649369  0.0355141795835805  0.2264934446970622
  0.7851129265710257  0.1190270726455166  0.3269729288326085
  0.5349247737175004  0.8693100682119066  0.3267270034168756
  0.7860016050831209  0.1183731066978361  0.0230079472771021
  0.5359875330724927  0.8684299468262819  0.0229768831480542
  0.2019776216442394  0.5355737428954918  0.2263640395881510
  0.9518127801787825  0.2856015549691578  0.2265043115070041
  0.8689358131847181  0.9519813188713294  0.1260495904973858
  0.7020048057461686  0.2854078369325963  0.2263922602752169
  0.4519908094822105  0.2855205728915128  0.2263619712092771
  0.4732503268395848  0.5587307284421534  0.5421978999007968
  0.5121927246622339  0.5978329321758784  0.5429986758868335
 
  0.00000000E+00  0.00000000E+00  0.00000000E+00
  0.00000000E+00  0.00000000E+00  0.00000000E+00
  0.00000000E+00  0.00000000E+00  0.00000000E+00
  0.00000000E+00  0.00000000E+00  0.00000000E+00
  0.00000000E+00  0.00000000E+00  0.00000000E+00
  0.00000000E+00  0.00000000E+00  0.00000000E+00
  0.00000000E+00  0.00000000E+00  0.00000000E+00
  0.00000000E+00  0.00000000E+00  0.00000000E+00
  0.00000000E+00  0.00000000E+00  0.00000000E+00
  0.00000000E+00  0.00000000E+00  0.00000000E+00
  0.00000000E+00  0.00000000E+00  0.00000000E+00
  0.00000000E+00  0.00000000E+00  0.00000000E+00
  0.00000000E+00  0.00000000E+00  0.00000000E+00
  0.00000000E+00  0.00000000E+00  0.00000000E+00
  0.00000000E+00  0.00000000E+00  0.00000000E+00
  0.00000000E+00  0.00000000E+00  0.00000000E+00
  0.00000000E+00  0.00000000E+00  0.00000000E+00
  0.00000000E+00  0.00000000E+00  0.00000000E+00
  0.00000000E+00  0.00000000E+00  0.00000000E+00
  0.00000000E+00  0.00000000E+00  0.00000000E+00
  0.00000000E+00  0.00000000E+00  0.00000000E+00
  0.00000000E+00  0.00000000E+00  0.00000000E+00
  0.00000000E+00  0.00000000E+00  0.00000000E+00
  0.00000000E+00  0.00000000E+00  0.00000000E+00
  0.00000000E+00  0.00000000E+00  0.00000000E+00
  0.00000000E+00  0.00000000E+00  0.00000000E+00
  0.00000000E+00  0.00000000E+00  0.00000000E+00
  0.00000000E+00  0.00000000E+00  0.00000000E+00
  0.00000000E+00  0.00000000E+00  0.00000000E+00
  0.00000000E+00  0.00000000E+00  0.00000000E+00
  0.00000000E+00  0.00000000E+00  0.00000000E+00
  0.00000000E+00  0.00000000E+00  0.00000000E+00
  0.00000000E+00  0.00000000E+00  0.00000000E+00
  0.00000000E+00  0.00000000E+00  0.00000000E+00
  0.00000000E+00  0.00000000E+00  0.00000000E+00
  0.00000000E+00  0.00000000E+00  0.00000000E+00
  0.00000000E+00  0.00000000E+00  0.00000000E+00
  0.00000000E+00  0.00000000E+00  0.00000000E+00
  0.00000000E+00  0.00000000E+00  0.00000000E+00
  0.00000000E+00  0.00000000E+00  0.00000000E+00
  0.00000000E+00  0.00000000E+00  0.00000000E+00
  0.00000000E+00  0.00000000E+00  0.00000000E+00
  0.00000000E+00  0.00000000E+00  0.00000000E+00
  0.00000000E+00  0.00000000E+00  0.00000000E+00
  0.00000000E+00  0.00000000E+00  0.00000000E+00
  0.00000000E+00  0.00000000E+00  0.00000000E+00
  0.00000000E+00  0.00000000E+00  0.00000000E+00
  0.00000000E+00  0.00000000E+00  0.00000000E+00
  0.00000000E+00  0.00000000E+00  0.00000000E+00
  0.00000000E+00  0.00000000E+00  0.00000000E+00
  0.00000000E+00  0.00000000E+00  0.00000000E+00
  0.00000000E+00  0.00000000E+00  0.00000000E+00
  0.00000000E+00  0.00000000E+00  0.00000000E+00
  0.00000000E+00  0.00000000E+00  0.00000000E+00
  0.00000000E+00  0.00000000E+00  0.00000000E+00
  0.00000000E+00  0.00000000E+00  0.00000000E+00
  0.00000000E+00  0.00000000E+00  0.00000000E+00
  0.00000000E+00  0.00000000E+00  0.00000000E+00
  0.00000000E+00  0.00000000E+00  0.00000000E+00
  0.00000000E+00  0.00000000E+00  0.00000000E+00
  0.00000000E+00  0.00000000E+00  0.00000000E+00
  0.00000000E+00  0.00000000E+00  0.00000000E+00
  0.00000000E+00  0.00000000E+00  0.00000000E+00
  0.00000000E+00  0.00000000E+00  0.00000000E+00
  0.00000000E+00  0.00000000E+00  0.00000000E+00
  0.00000000E+00  0.00000000E+00  0.00000000E+00
  0.00000000E+00  0.00000000E+00  0.00000000E+00
  0.00000000E+00  0.00000000E+00  0.00000000E+00
  0.00000000E+00  0.00000000E+00  0.00000000E+00
  0.00000000E+00  0.00000000E+00  0.00000000E+00
  0.00000000E+00  0.00000000E+00  0.00000000E+00
  0.00000000E+00  0.00000000E+00  0.00000000E+00
  0.00000000E+00  0.00000000E+00  0.00000000E+00
  0.00000000E+00  0.00000000E+00  0.00000000E+00
  0.00000000E+00  0.00000000E+00  0.00000000E+00
  0.00000000E+00  0.00000000E+00  0.00000000E+00
  0.00000000E+00  0.00000000E+00  0.00000000E+00
  0.00000000E+00  0.00000000E+00  0.00000000E+00
  0.00000000E+00  0.00000000E+00  0.00000000E+00
  0.00000000E+00  0.00000000E+00  0.00000000E+00
  0.00000000E+00  0.00000000E+00  0.00000000E+00
  0.00000000E+00  0.00000000E+00  0.00000000E+00
