10.56                                   
   1.00000000000000     
    10.5600004195999997    0.0000000000000000    0.0000000000000000
     5.2800002097999998    9.1452286273999999    0.0000000000000000
     0.0000000000000000    0.0000000000000000   22.0000000000000000
   Pt   Fe   Co   Cu   Ni   N 
    32    13    10    13    12     1
Selective dynamics
Direct
  0.7865775026204781  0.8790565834540788  0.3169790286807082   T   T   T
  0.0429878784976898  0.8821425986943574  0.3158594470518400   T   T   T
  0.2811428688853502  0.3807762430314737  0.3204586250646311   T   T   T
  0.8733252499686486  0.9623243852344369  0.4235539873501476   T   T   T
  0.1200822405639920  0.4629565059298067  0.4283436201807800   T   T   T
  0.1238919446338329  0.9609583072473168  0.4220058092365553   T   T   T
  0.8743255645939791  0.4600416268198340  0.4266183305996183   T   T   T
  0.3741185273022032  0.9601317157316224  0.4201912408916263   T   T   T
  0.8781687968676948  0.2088004961372645  0.4187333755011508   T   T   T
  0.1240102646320001  0.2113459244484653  0.4225654026036258   T   T   T
  0.6244489845596828  0.9591942346060542  0.4240754748219679   T   T   T
  0.8738429484640914  0.7105398145175138  0.4245956976830894   T   T   T
  0.3707102401565940  0.2069415730561028  0.4225111946198240   T   T   T
  0.3726183498830437  0.7169950228015441  0.4218625227018195   T   T   T
  0.6283625359129212  0.4628509537611580  0.4318734795809696   T   T   T
  0.1227440033612464  0.7116777837424456  0.4258589294425497   T   T   T
  0.6250098444394830  0.2057096177415066  0.4298648386046587   T   T   T
  0.5496817553003700  0.3763565295282846  0.3183241643951296   T   T   T
  0.5367580581920763  0.1259734237495181  0.3160187225397829   T   T   T
  0.5470002567308043  0.1235332521939583  0.0399417999772709   F   F   F
  0.1208089481832886  0.4601783015999317  0.1280394984818187   F   F   F
  0.0444334497170178  0.1362147088631429  0.3135797098532287   T   T   T
  0.0424414900706935  0.1302099981111695  0.0329802953681835   F   F   F
  0.1304832192178935  0.9579853651937356  0.1318324513636355   F   F   F
  0.3673067780435192  0.4640675385828655  0.4341800454577570   T   T   T
  0.4545409546936767  0.5457192756283078  0.2188518203000029   F   F   F
  0.6225388319369028  0.7108869486285627  0.4232523619903383   T   T   T
  0.9557150112739734  0.7901309279847197  0.2210448635636340   F   F   F
  0.7940738218227578  0.6219252024193818  0.3185981055313603   T   T   T
  0.2930591454497200  0.6293894737838462  0.3190063445457996   T   T   T
  0.2026302282546482  0.2805717472619946  0.2254649220954548   F   F   F
  0.7064516142104935  0.5493905794598390  0.2207507679909071   F   F   F
  0.0412627996323784  0.6294014907939526  0.3240914529774323   T   T   T
  0.7973180911857654  0.8616265572072663  0.0420760910772700   F   F   F
  0.0560985910286504  0.8657185943694543  0.0377408024136372   F   F   F
  0.0464128728304587  0.6281990126400245  0.0369911384090926   F   F   F
  0.6273755757405439  0.2222416784103771  0.1287505962318178   F   F   F
  0.3821141315863983  0.9550040284758836  0.1298830475227248   F   F   F
  0.0365187991790198  0.3836016665491682  0.3245184037266134   T   T   T
  0.0311405267529068  0.3816759960316460  0.0375046088681827   F   F   F
  0.8722404389362310  0.2153943248393162  0.1282949969590916   F   F   F
  0.9547121146441953  0.5451880757537140  0.2238905465227248   F   F   F
  0.2976417460375252  0.1151863150154715  0.3205011392094891   T   T   T
  0.5411059098075992  0.6283146836939754  0.3223071351579871   T   T   T
  0.2952537777580275  0.1193869715983666  0.0394092290045478   F   F   F
  0.5482511333458362  0.6253176515966246  0.0436557828227251   F   F   F
  0.2955313611175683  0.3794825008859988  0.0388921565772762   F   F   F
  0.6254873592728032  0.9499576153264400  0.1320861515409106   F   F   F
  0.7063418941412323  0.7943482474494772  0.2201040810409083   F   F   F
  0.8657230808985474  0.7055915708183349  0.1288086150363625   F   F   F
  0.6261967559749806  0.4601083651744915  0.1271035316954539   F   F   F
  0.2981892664554667  0.8755095339141814  0.3172715574470161   T   T   T
  0.3058183792080129  0.8681273535812224  0.0402965921590877   F   F   F
  0.6267113460374674  0.7146527937769136  0.1282718373772695   F   F   F
  0.2238985663333324  0.0282395707665799  0.2273103066590920   F   F   F
  0.5426930146679965  0.3810225683434538  0.0346170130500028   F   F   F
  0.3782499856614123  0.2053095451189151  0.1325912588909119   F   F   F
  0.1361840205679030  0.7049738332493618  0.1317829863318210   F   F   F
  0.7048694108137141  0.0502839582186283  0.2203633218772723   F   F   F
  0.7924168892304609  0.1302222267272059  0.3173013484916692   T   T   T
  0.5388531626087795  0.8732591533696094  0.3167648009535427   T   T   T
  0.7965506180334998  0.1231154660613569  0.0345346489227296   F   F   F
  0.5461463374708515  0.8704875427114658  0.0358963983818157   F   F   F
  0.2072223479328272  0.5428206522718000  0.2241705479818208   F   F   F
  0.9515132437870619  0.2967218890154157  0.2212922910363631   F   F   F
  0.8718576990639662  0.9638570180181532  0.1289765751136329   F   F   F
  0.7142109858849466  0.2900443576175675  0.2233456813409092   F   F   F
  0.4576441344000983  0.2914717494993724  0.2208305283954530   F   F   F
  0.8758100826533664  0.4565068959120069  0.1279466825136382   F   F   F
  0.1276916528005785  0.2069238958586865  0.1287633622272750   F   F   F
  0.7922909547091166  0.6217683887271619  0.0402482253999992   F   F   F
  0.2978485906287958  0.6254074402977565  0.0420896375636346   F   F   F
  0.3856750788553356  0.7114654717221427  0.1289187271227306   F   F   F
  0.3820764845414715  0.4516090485180371  0.1264952625681843   F   F   F
  0.7917990607960546  0.3799275862407974  0.3218039354810254   T   T   T
  0.7909247997136220  0.3772595911558838  0.0394562840909103   F   F   F
  0.9555996101362965  0.0529344377623957  0.2214324969818193   F   F   F
  0.4575573979143996  0.7971559299412050  0.2244088666727251   F   F   F
  0.2131500369795702  0.7976872161559072  0.2245790410590942   F   F   F
  0.4623985897484246  0.0302163017414401  0.2220026953545471   F   F   F
  0.5431159148523466  0.3750846384536698  0.4841438932175958   T   T   T
 
  0.00000000E+00  0.00000000E+00  0.00000000E+00
  0.00000000E+00  0.00000000E+00  0.00000000E+00
  0.00000000E+00  0.00000000E+00  0.00000000E+00
  0.00000000E+00  0.00000000E+00  0.00000000E+00
  0.00000000E+00  0.00000000E+00  0.00000000E+00
  0.00000000E+00  0.00000000E+00  0.00000000E+00
  0.00000000E+00  0.00000000E+00  0.00000000E+00
  0.00000000E+00  0.00000000E+00  0.00000000E+00
  0.00000000E+00  0.00000000E+00  0.00000000E+00
  0.00000000E+00  0.00000000E+00  0.00000000E+00
  0.00000000E+00  0.00000000E+00  0.00000000E+00
  0.00000000E+00  0.00000000E+00  0.00000000E+00
  0.00000000E+00  0.00000000E+00  0.00000000E+00
  0.00000000E+00  0.00000000E+00  0.00000000E+00
  0.00000000E+00  0.00000000E+00  0.00000000E+00
  0.00000000E+00  0.00000000E+00  0.00000000E+00
  0.00000000E+00  0.00000000E+00  0.00000000E+00
  0.00000000E+00  0.00000000E+00  0.00000000E+00
  0.00000000E+00  0.00000000E+00  0.00000000E+00
  0.00000000E+00  0.00000000E+00  0.00000000E+00
  0.00000000E+00  0.00000000E+00  0.00000000E+00
  0.00000000E+00  0.00000000E+00  0.00000000E+00
  0.00000000E+00  0.00000000E+00  0.00000000E+00
  0.00000000E+00  0.00000000E+00  0.00000000E+00
  0.00000000E+00  0.00000000E+00  0.00000000E+00
  0.00000000E+00  0.00000000E+00  0.00000000E+00
  0.00000000E+00  0.00000000E+00  0.00000000E+00
  0.00000000E+00  0.00000000E+00  0.00000000E+00
  0.00000000E+00  0.00000000E+00  0.00000000E+00
  0.00000000E+00  0.00000000E+00  0.00000000E+00
  0.00000000E+00  0.00000000E+00  0.00000000E+00
  0.00000000E+00  0.00000000E+00  0.00000000E+00
  0.00000000E+00  0.00000000E+00  0.00000000E+00
  0.00000000E+00  0.00000000E+00  0.00000000E+00
  0.00000000E+00  0.00000000E+00  0.00000000E+00
  0.00000000E+00  0.00000000E+00  0.00000000E+00
  0.00000000E+00  0.00000000E+00  0.00000000E+00
  0.00000000E+00  0.00000000E+00  0.00000000E+00
  0.00000000E+00  0.00000000E+00  0.00000000E+00
  0.00000000E+00  0.00000000E+00  0.00000000E+00
  0.00000000E+00  0.00000000E+00  0.00000000E+00
  0.00000000E+00  0.00000000E+00  0.00000000E+00
  0.00000000E+00  0.00000000E+00  0.00000000E+00
  0.00000000E+00  0.00000000E+00  0.00000000E+00
  0.00000000E+00  0.00000000E+00  0.00000000E+00
  0.00000000E+00  0.00000000E+00  0.00000000E+00
  0.00000000E+00  0.00000000E+00  0.00000000E+00
  0.00000000E+00  0.00000000E+00  0.00000000E+00
  0.00000000E+00  0.00000000E+00  0.00000000E+00
  0.00000000E+00  0.00000000E+00  0.00000000E+00
  0.00000000E+00  0.00000000E+00  0.00000000E+00
  0.00000000E+00  0.00000000E+00  0.00000000E+00
  0.00000000E+00  0.00000000E+00  0.00000000E+00
  0.00000000E+00  0.00000000E+00  0.00000000E+00
  0.00000000E+00  0.00000000E+00  0.00000000E+00
  0.00000000E+00  0.00000000E+00  0.00000000E+00
  0.00000000E+00  0.00000000E+00  0.00000000E+00
  0.00000000E+00  0.00000000E+00  0.00000000E+00
  0.00000000E+00  0.00000000E+00  0.00000000E+00
  0.00000000E+00  0.00000000E+00  0.00000000E+00
  0.00000000E+00  0.00000000E+00  0.00000000E+00
  0.00000000E+00  0.00000000E+00  0.00000000E+00
  0.00000000E+00  0.00000000E+00  0.00000000E+00
  0.00000000E+00  0.00000000E+00  0.00000000E+00
  0.00000000E+00  0.00000000E+00  0.00000000E+00
  0.00000000E+00  0.00000000E+00  0.00000000E+00
  0.00000000E+00  0.00000000E+00  0.00000000E+00
  0.00000000E+00  0.00000000E+00  0.00000000E+00
  0.00000000E+00  0.00000000E+00  0.00000000E+00
  0.00000000E+00  0.00000000E+00  0.00000000E+00
  0.00000000E+00  0.00000000E+00  0.00000000E+00
  0.00000000E+00  0.00000000E+00  0.00000000E+00
  0.00000000E+00  0.00000000E+00  0.00000000E+00
  0.00000000E+00  0.00000000E+00  0.00000000E+00
  0.00000000E+00  0.00000000E+00  0.00000000E+00
  0.00000000E+00  0.00000000E+00  0.00000000E+00
  0.00000000E+00  0.00000000E+00  0.00000000E+00
  0.00000000E+00  0.00000000E+00  0.00000000E+00
  0.00000000E+00  0.00000000E+00  0.00000000E+00
  0.00000000E+00  0.00000000E+00  0.00000000E+00
  0.00000000E+00  0.00000000E+00  0.00000000E+00
