11.26-high                              
   1.00000000000000     
    11.2227001190000006    0.0000000000000000    0.0000000000000000
     5.6113500595000003    9.7191434021000003    0.0000000000000000
     0.0000000000000000    0.0000000000000000   22.0000000000000000
   Pt   Fe   Co   Cu   Ni   H 
    42    10     9    10     9     1
Selective dynamics
Direct
  0.7767580436866751  0.8703894816374088  0.3151195583892134   T   T   T
  0.0364265075521183  0.8691779502408896  0.3160571126960373   T   T   T
  0.0364267359679941  0.6166183306606025  0.3130466531637101   T   T   T
  0.0280289373141813  0.3710595828138728  0.3186399337104566   T   T   T
  0.2895280577988718  0.1065980133991371  0.3184758875057453   T   T   T
  0.2870483147875191  0.3676488596805833  0.3173164427346810   T   T   T
  0.8603830678044062  0.6885467750536591  0.1253156462500016   F   F   F
  0.8652086942133059  0.9542886954274047  0.4188529496272145   T   T   T
  0.1150505527367433  0.4555554729706168  0.4194732277174984   T   T   T
  0.1269420815466690  0.9512396753165063  0.4188289511547690   T   T   T
  0.8704707412148135  0.4488027801566579  0.4210718801125730   T   T   T
  0.3729142187408401  0.9458417851492692  0.4182107067153319   T   T   T
  0.8647163883230842  0.2081305991653734  0.4153371030887014   T   T   T
  0.1198352475641768  0.2018820639809382  0.4203940059421823   T   T   T
  0.6192866471332340  0.9469760181350050  0.4178650369021772   T   T   T
  0.8659152427105261  0.7016110647637441  0.4194775135844558   T   T   T
  0.3731126730227148  0.1965059268241684  0.4195531360080063   T   T   T
  0.3760760104338809  0.7018984906023745  0.4180844888495582   T   T   T
  0.6221394446366985  0.4565176618605216  0.4192878236072041   T   T   T
  0.1207871112281586  0.6964982687975589  0.4206434006882707   T   T   T
  0.6189438630718423  0.2050104138989025  0.4170638765839579   T   T   T
  0.5408089809165639  0.3759148751402572  0.3176177604731854   T   T   T
  0.5320549537447845  0.1210557943497948  0.3163628971292530   T   T   T
  0.5442019006228733  0.1201914845034153  0.0504434484681795   F   F   F
  0.1142405163196329  0.4386075722968457  0.1234050769590880   F   F   F
  0.0387023183296412  0.1140641476361520  0.3161575469312503   T   T   T
  0.0243253264458687  0.1323668837134377  0.0369015360272726   F   F   F
  0.1152134814866699  0.9584880216488187  0.1297927210409071   F   F   F
  0.3674279998209182  0.4526065107332383  0.4196631971107197   T   T   T
  0.4557435896217541  0.5396524899372039  0.2213525035863668   F   F   F
  0.6173661693524317  0.7020654523276514  0.4203832032322098   T   T   T
  0.9410139446931112  0.7905655189880036  0.2179142421045484   F   F   F
  0.7799807020512445  0.6227960955836033  0.3180083233964238   T   T   T
  0.2892083228810923  0.6211144459790123  0.3180127778526790   T   T   T
  0.3768126017729969  0.7090882968360077  0.1223311202272725   F   F   F
  0.1980441227920124  0.2771285427188985  0.2229871410590931   F   F   F
  0.6939540916241498  0.5484393539196333  0.2221168207409079   F   F   F
  0.2107683324880867  0.7918799648369301  0.2236131327318205   F   F   F
  0.4557418254902501  0.0164923155846566  0.2206410286909062   F   F   F
  0.6862860921415930  0.0468873908889478  0.2147227927181845   F   F   F
  0.7845705638676731  0.1206217728277713  0.3133648250650906   T   T   T
  0.9434930917077722  0.2857924509272962  0.2215890749863618   F   F   F
  0.7867857272291658  0.8821680795189693  0.0488070628545429   F   F   F
  0.0358623303006738  0.8507121037450176  0.0465431883590881   F   F   F
  0.0481229290084855  0.6302962965930092  0.0439644148227245   F   F   F
  0.6209494190243205  0.2256219229594052  0.1323573148454571   F   F   F
  0.3709421952700751  0.9443970530280268  0.1313032974227255   F   F   F
  0.9936099268667462  0.3719789771410120  0.0447934889863646   F   F   F
  0.8631642533399813  0.2122395306827443  0.1308509258409103   F   F   F
  0.9463297029474802  0.5321554723827262  0.2240115982681843   F   F   F
  0.5364355869194418  0.6192403405571416  0.3227851945018990   T   T   T
  0.2942496729187951  0.1094640347697862  0.0502411027818184   F   F   F
  0.5652370767781534  0.5964757606259212  0.0467385234636382   F   F   F
  0.3035354273760760  0.3837712234901360  0.0499963786545479   F   F   F
  0.6277578011989107  0.9236075517169979  0.1303932065727267   F   F   F
  0.6989168430191057  0.7800059105684127  0.2225661840045490   F   F   F
  0.6222664635151602  0.4485233850092314  0.1314846070363629   F   F   F
  0.2878612185024841  0.8667454409718032  0.3199383390927752   T   T   T
  0.2792035565351938  0.9034454831176575  0.0410961363181812   F   F   F
  0.6143503406269275  0.7101301790452794  0.1300746441954530   F   F   F
  0.2165096431681519  0.0224182010065732  0.2257764199409067   F   F   F
  0.5361482883496507  0.3764256073029557  0.0401335441090893   F   F   F
  0.3702343115390931  0.2105192803882190  0.1365703187000022   F   F   F
  0.1326484000424202  0.6896726429153901  0.1374850507500014   F   F   F
  0.5353144928848936  0.8582458057200114  0.3185472107789148   T   T   T
  0.7841087454784841  0.1257091519028322  0.0403582594772729   F   F   F
  0.5329206264284778  0.8661142146417120  0.0408235199181846   F   F   F
  0.2106888119822869  0.5229193255242919  0.2214641484136379   F   F   F
  0.8693192534775847  0.9736660002521731  0.1323443272500029   F   F   F
  0.7050605033612314  0.2914274399005166  0.2245332657363619   F   F   F
  0.4533111685043210  0.2946908516218798  0.2235118708227262   F   F   F
  0.8556987306866617  0.4497894098625466  0.1313302277681814   F   F   F
  0.1273694145296886  0.1919494531582799  0.1306615633954564   F   F   F
  0.7725967245697234  0.5982079950527108  0.0420667780727300   F   F   F
  0.2752698282785886  0.6127388501452984  0.0463555859136378   F   F   F
  0.3852170713906986  0.4500455704928612  0.1318572647090903   F   F   F
  0.7767840132479124  0.3805092535705598  0.3195765434756884   T   T   T
  0.7757829137447203  0.3655372166679172  0.0436342522727244   F   F   F
  0.9538253258237788  0.0428579507644642  0.2228099709181848   F   F   F
  0.4551161067616150  0.7837870906559559  0.2271676499863631   F   F   F
  0.0332543585195401  0.8684649104671976  0.4563860568397266   T   T   T
 
  0.00000000E+00  0.00000000E+00  0.00000000E+00
  0.00000000E+00  0.00000000E+00  0.00000000E+00
  0.00000000E+00  0.00000000E+00  0.00000000E+00
  0.00000000E+00  0.00000000E+00  0.00000000E+00
  0.00000000E+00  0.00000000E+00  0.00000000E+00
  0.00000000E+00  0.00000000E+00  0.00000000E+00
  0.00000000E+00  0.00000000E+00  0.00000000E+00
  0.00000000E+00  0.00000000E+00  0.00000000E+00
  0.00000000E+00  0.00000000E+00  0.00000000E+00
  0.00000000E+00  0.00000000E+00  0.00000000E+00
  0.00000000E+00  0.00000000E+00  0.00000000E+00
  0.00000000E+00  0.00000000E+00  0.00000000E+00
  0.00000000E+00  0.00000000E+00  0.00000000E+00
  0.00000000E+00  0.00000000E+00  0.00000000E+00
  0.00000000E+00  0.00000000E+00  0.00000000E+00
  0.00000000E+00  0.00000000E+00  0.00000000E+00
  0.00000000E+00  0.00000000E+00  0.00000000E+00
  0.00000000E+00  0.00000000E+00  0.00000000E+00
  0.00000000E+00  0.00000000E+00  0.00000000E+00
  0.00000000E+00  0.00000000E+00  0.00000000E+00
  0.00000000E+00  0.00000000E+00  0.00000000E+00
  0.00000000E+00  0.00000000E+00  0.00000000E+00
  0.00000000E+00  0.00000000E+00  0.00000000E+00
  0.00000000E+00  0.00000000E+00  0.00000000E+00
  0.00000000E+00  0.00000000E+00  0.00000000E+00
  0.00000000E+00  0.00000000E+00  0.00000000E+00
  0.00000000E+00  0.00000000E+00  0.00000000E+00
  0.00000000E+00  0.00000000E+00  0.00000000E+00
  0.00000000E+00  0.00000000E+00  0.00000000E+00
  0.00000000E+00  0.00000000E+00  0.00000000E+00
  0.00000000E+00  0.00000000E+00  0.00000000E+00
  0.00000000E+00  0.00000000E+00  0.00000000E+00
  0.00000000E+00  0.00000000E+00  0.00000000E+00
  0.00000000E+00  0.00000000E+00  0.00000000E+00
  0.00000000E+00  0.00000000E+00  0.00000000E+00
  0.00000000E+00  0.00000000E+00  0.00000000E+00
  0.00000000E+00  0.00000000E+00  0.00000000E+00
  0.00000000E+00  0.00000000E+00  0.00000000E+00
  0.00000000E+00  0.00000000E+00  0.00000000E+00
  0.00000000E+00  0.00000000E+00  0.00000000E+00
  0.00000000E+00  0.00000000E+00  0.00000000E+00
  0.00000000E+00  0.00000000E+00  0.00000000E+00
  0.00000000E+00  0.00000000E+00  0.00000000E+00
  0.00000000E+00  0.00000000E+00  0.00000000E+00
  0.00000000E+00  0.00000000E+00  0.00000000E+00
  0.00000000E+00  0.00000000E+00  0.00000000E+00
  0.00000000E+00  0.00000000E+00  0.00000000E+00
  0.00000000E+00  0.00000000E+00  0.00000000E+00
  0.00000000E+00  0.00000000E+00  0.00000000E+00
  0.00000000E+00  0.00000000E+00  0.00000000E+00
  0.00000000E+00  0.00000000E+00  0.00000000E+00
  0.00000000E+00  0.00000000E+00  0.00000000E+00
  0.00000000E+00  0.00000000E+00  0.00000000E+00
  0.00000000E+00  0.00000000E+00  0.00000000E+00
  0.00000000E+00  0.00000000E+00  0.00000000E+00
  0.00000000E+00  0.00000000E+00  0.00000000E+00
  0.00000000E+00  0.00000000E+00  0.00000000E+00
  0.00000000E+00  0.00000000E+00  0.00000000E+00
  0.00000000E+00  0.00000000E+00  0.00000000E+00
  0.00000000E+00  0.00000000E+00  0.00000000E+00
  0.00000000E+00  0.00000000E+00  0.00000000E+00
  0.00000000E+00  0.00000000E+00  0.00000000E+00
  0.00000000E+00  0.00000000E+00  0.00000000E+00
  0.00000000E+00  0.00000000E+00  0.00000000E+00
  0.00000000E+00  0.00000000E+00  0.00000000E+00
  0.00000000E+00  0.00000000E+00  0.00000000E+00
  0.00000000E+00  0.00000000E+00  0.00000000E+00
  0.00000000E+00  0.00000000E+00  0.00000000E+00
  0.00000000E+00  0.00000000E+00  0.00000000E+00
  0.00000000E+00  0.00000000E+00  0.00000000E+00
  0.00000000E+00  0.00000000E+00  0.00000000E+00
  0.00000000E+00  0.00000000E+00  0.00000000E+00
  0.00000000E+00  0.00000000E+00  0.00000000E+00
  0.00000000E+00  0.00000000E+00  0.00000000E+00
  0.00000000E+00  0.00000000E+00  0.00000000E+00
  0.00000000E+00  0.00000000E+00  0.00000000E+00
  0.00000000E+00  0.00000000E+00  0.00000000E+00
  0.00000000E+00  0.00000000E+00  0.00000000E+00
  0.00000000E+00  0.00000000E+00  0.00000000E+00
  0.00000000E+00  0.00000000E+00  0.00000000E+00
  0.00000000E+00  0.00000000E+00  0.00000000E+00
