Pt   H                                  
   1.00000000000000     
    11.2227001190000006    0.0000000000000000    0.0000000000000000
     5.6113500595000003    9.7191434021000003    0.0000000000000000
     0.0000000000000000    0.0000000000000000   22.0000000000000000
   Pt   H 
    80    17
Direct
  0.7870788460155220  0.8756030725075994  0.3432241732902560
  0.0400714650859523  0.8735051289454261  0.3438308014349220
  0.0378786870390271  0.6260747175395595  0.3442360668373556
  0.7824888028863268  0.8750857481811410  0.0397845338812760
  0.0334016522063966  0.8745051010291893  0.0394410622155692
  0.0340276915183599  0.6236606036491147  0.0400534416849280
  0.6174837119867478  0.2090267866567392  0.1425863907298789
  0.3678884653265175  0.9578063388407677  0.1432657848185775
  0.0342559094688281  0.3769311881400906  0.3450672614038523
  0.0331930702209514  0.3740274480983859  0.0400319212820587
  0.8667734410453158  0.2095561388872487  0.1428501575828864
  0.9515063379392987  0.5431758387139446  0.2432104280332313
  0.2878058487139456  0.1244995181840024  0.3442165583885760
  0.5385866249669893  0.6205711017059298  0.3488778217750672
  0.2903458806157131  0.3773842009957562  0.3454423309355250
  0.2823096416661118  0.1246024919613664  0.0406276782176137
  0.5321381349753769  0.6243740699286690  0.0397934409455975
  0.2828578685842344  0.3746711204581981  0.0400669044100124
  0.6173488810720140  0.9587268849456928  0.1426622434891712
  0.7021551388568064  0.7916560273761331  0.2428599035204932
  0.8678898571636793  0.7084583801419136  0.1429864849603579
  0.6174446730342780  0.4595093396830716  0.1433637169797431
  0.2900298342077637  0.8696854250657814  0.3454262708154298
  0.2831236519555251  0.8743637172967244  0.0391823711571059
  0.6176788716505008  0.7086349379719448  0.1435282213312951
  0.2024987839200847  0.0410052574331956  0.2439253228543261
  0.8713003288763762  0.9593987914138189  0.4474074776702064
  0.1226395977125137  0.4593740633154513  0.4470491484240535
  0.1256480772528030  0.9546295667693806  0.4482087148264451
  0.8642382275689409  0.4575828130469793  0.4511528084072154
  0.3751145275339829  0.9510685122749084  0.4488279207672732
  0.8633138611635376  0.2144847313943000  0.4486316512566451
  0.1212111957441136  0.2085127526159916  0.4482982447025664
  0.6209224402444687  0.9574039736729139  0.4476613413966966
  0.8711381059198890  0.7065303721438633  0.4480981037404791
  0.3710859985380655  0.2079468681240689  0.4476618594484902
  0.3873306915833581  0.6787813732072413  0.4549455266086196
  0.6182670392143785  0.4322556474240755  0.5040859764088126
  0.1283213978202161  0.7059611921039605  0.4500974701457695
  0.6163938289501359  0.2148638915713083  0.4458586237515497
  0.5331293920290316  0.3822000219282034  0.3500434311110731
  0.5327618693748715  0.3747853753665044  0.0397379126627589
  0.5372316844273816  0.1261626137535551  0.3438382314456739
  0.5321076362052282  0.1255454048417376  0.0396082918225099
  0.8671759396289376  0.4590911659260764  0.1434824775381091
  0.1176264640197126  0.4586925150588702  0.1432921175069887
  0.0350329569638791  0.1263194581412332  0.3442684774380314
  0.0331673825213742  0.1249940967367108  0.0401187965164330
  0.1184612407337057  0.9582174524548122  0.1429560882261424
  0.3692890451262039  0.4531385609621082  0.4861669471948334
  0.4528689465533369  0.5417879984435277  0.2453947364078734
  0.6215666029071429  0.6956117269299064  0.4545556030810576
  0.3675447903797372  0.2089923095926513  0.1428957328289525
  0.1173696313532554  0.2090391893978317  0.1432359236645100
  0.9530857773323883  0.7926714354068436  0.2420593651197548
  0.7850177892748187  0.6245484620906280  0.3454399547243784
  0.2906078330316129  0.6219502338371011  0.3481681523230230
  0.7826034589949495  0.6237899230714903  0.0399423057989058
  0.2843246631229929  0.6239609620793458  0.0397533012527589
  0.3685439561281300  0.7086831224349158  0.1432482196878126
  0.3677191115472946  0.4592154163025712  0.1431231029811555
  0.2022724421611379  0.2930817794981018  0.2442302659097877
  0.7798791205484507  0.3781217378341179  0.3470785197915761
  0.7826870078145250  0.3748802330500623  0.0395412456267008
  0.9520606001151621  0.0427840783284614  0.2429589695949881
  0.4533654726281339  0.7912685352643951  0.2442046742569468
  0.7011206051030044  0.5428465325669980  0.2441904242670724
  0.2029233589746489  0.7919590125279437  0.2440845497547422
  0.4537138519218478  0.0414422026066722  0.2435736908734449
  0.1182822877796963  0.7085849642052912  0.1428778141940035
  0.7026013274667486  0.0428225861030182  0.2421439292253312
  0.7847421354587992  0.1281805783362327  0.3440633476501957
  0.5390413283312980  0.8701596621313502  0.3454153335230665
  0.7821778993090054  0.1255586666198483  0.0393220000172378
  0.5320197567274798  0.8750857181717635  0.0395485828183231
  0.2032939405455597  0.5425131476555011  0.2439260914610365
  0.9501782150911936  0.2932593027537906  0.2438289771663467
  0.8682403775926754  0.9589254395296203  0.1424537864274536
  0.7007806689907996  0.2938261715260805  0.2441702069350294
  0.4522903968812281  0.2932820145104599  0.2440647049786976
  0.3380137209441505  0.4325296010622972  0.5537951544079830
  0.6415033118264553  0.3390467122067428  0.5621606421959922
  0.6911036802765222  0.5578575951626267  0.5048022111538519
  0.2132430654406176  0.7922250109521427  0.4880060840422685
  0.4536014518298518  0.7852802258742445  0.4909913110725422
  0.7042348457977226  0.7924157693907478  0.4882979094313844
  0.9537277518562857  0.7939734676394199  0.4870416772145605
  0.1830393345454143  0.5544515506294304  0.4960612945297921
  0.9521945432049108  0.5424211463523352  0.4872411715576902
  0.2027560639050807  0.2920137660518406  0.4878446161143196
  0.4627172957384081  0.2684133035799998  0.4962777644738172
  0.7700581160646907  0.2725015761933128  0.5139767016964099
  0.9620290737344384  0.2916072276368898  0.4893712327258485
  0.2066771700286596  0.0411924066346100  0.4888124148262489
  0.4569121982365249  0.0381786546769488  0.4875696911622077
  0.7080344124876842  0.0386353757430044  0.4860560754207146
  0.9566597817604870  0.0404836480668067  0.4868809855966758
 
             NaN             NaN             NaN
             NaN             NaN             NaN
             NaN             NaN             NaN
             NaN             NaN             NaN
             NaN             NaN             NaN
             NaN             NaN             NaN
             NaN             NaN             NaN
             NaN             NaN             NaN
             NaN             NaN             NaN
             NaN             NaN             NaN
             NaN             NaN             NaN
             NaN             NaN             NaN
             NaN             NaN             NaN
             NaN             NaN             NaN
             NaN             NaN             NaN
             NaN             NaN             NaN
             NaN             NaN             NaN
             NaN             NaN             NaN
             NaN             NaN             NaN
             NaN             NaN             NaN
             NaN             NaN             NaN
             NaN             NaN             NaN
             NaN             NaN             NaN
             NaN             NaN             NaN
             NaN             NaN             NaN
             NaN             NaN             NaN
             NaN             NaN             NaN
             NaN             NaN             NaN
             NaN             NaN             NaN
             NaN             NaN             NaN
             NaN             NaN             NaN
             NaN             NaN             NaN
             NaN             NaN             NaN
             NaN             NaN             NaN
             NaN             NaN             NaN
             NaN             NaN             NaN
             NaN             NaN             NaN
             NaN             NaN             NaN
             NaN             NaN             NaN
             NaN             NaN             NaN
             NaN             NaN             NaN
             NaN             NaN             NaN
             NaN             NaN             NaN
             NaN             NaN             NaN
             NaN             NaN             NaN
             NaN             NaN             NaN
             NaN             NaN             NaN
             NaN             NaN             NaN
             NaN             NaN             NaN
             NaN             NaN             NaN
             NaN             NaN             NaN
             NaN             NaN             NaN
             NaN             NaN             NaN
             NaN             NaN             NaN
             NaN             NaN             NaN
             NaN             NaN             NaN
             NaN             NaN             NaN
             NaN             NaN             NaN
             NaN             NaN             NaN
             NaN             NaN             NaN
             NaN             NaN             NaN
             NaN             NaN             NaN
             NaN             NaN             NaN
             NaN             NaN             NaN
             NaN             NaN             NaN
             NaN             NaN             NaN
             NaN             NaN             NaN
             NaN             NaN             NaN
             NaN             NaN             NaN
             NaN             NaN             NaN
             NaN             NaN             NaN
             NaN             NaN             NaN
             NaN             NaN             NaN
             NaN             NaN             NaN
             NaN             NaN             NaN
             NaN             NaN             NaN
             NaN             NaN             NaN
             NaN             NaN             NaN
             NaN             NaN             NaN
             NaN             NaN             NaN
             NaN             NaN             NaN
             NaN             NaN             NaN
             NaN             NaN             NaN
             NaN             NaN             NaN
             NaN             NaN             NaN
             NaN             NaN             NaN
             NaN             NaN             NaN
             NaN             NaN             NaN
             NaN             NaN             NaN
             NaN             NaN             NaN
             NaN             NaN             NaN
             NaN             NaN             NaN
             NaN             NaN             NaN
             NaN             NaN             NaN
             NaN             NaN             NaN
             NaN             NaN             NaN
             NaN             NaN             NaN
