10.86                                   
   1.00000000000000     
    10.8599996566999994    0.0000000000000000    0.0000000000000000
     5.4299998282999997    9.4050355878000005    0.0000000000000000
     0.0000000000000000    0.0000000000000000   22.0000000000000000
   Pt   Fe   Co   Cu   Ni   H 
    32    13    10    13    12     1
Selective dynamics
Direct
  0.7847981854341057  0.8804034687057367  0.3147904618500021   F   F   F
  0.0432013173987329  0.8811505301425981  0.3125109800727301   F   F   F
  0.2809883514919633  0.3788145813633648  0.3176965460136358   F   F   F
  0.8747114216645642  0.9626305822642607  0.4176463631772762   F   F   F
  0.1149945441666063  0.4663718326158985  0.4205174398954554   F   F   F
  0.1264476407818194  0.9605861385914523  0.4161713381954542   F   F   F
  0.8745315336786064  0.4576707912815934  0.4214656136681825   F   F   F
  0.3744307390648842  0.9605354323612048  0.4159044661545437   F   F   F
  0.8735311429809443  0.2108305819355039  0.4160265798045444   F   F   F
  0.1255363533743008  0.2115067892757807  0.4173415457636338   F   F   F
  0.6253300164538231  0.9584078092902217  0.4188830151090883   F   F   F
  0.8732776899353354  0.7123824058774488  0.4213850743727292   F   F   F
  0.3760616382437547  0.2055001371932192  0.4231606471545462   F   F   F
  0.3763418155018101  0.7120686181971720  0.4186156197545472   F   F   F
  0.6270700578103074  0.4619460740090915  0.4178888872818192   F   F   F
  0.1227680241536007  0.7118679210618595  0.4203524728181804   F   F   F
  0.6291321713018974  0.2079928451666362  0.4159714565409089   F   F   F
  0.5469784133502742  0.3763624185847476  0.3151999260090932   F   F   F
  0.5322569126989265  0.1253459956418723  0.3133309377545430   F   F   F
  0.5483883292934877  0.1233734725262678  0.0461674633454550   F   F   F
  0.1189763218456719  0.4584087287125840  0.1298649037999979   F   F   F
  0.0444331578942254  0.1356191000015485  0.3126490973681797   F   F   F
  0.0406657298294206  0.1314986331475723  0.0367327973454579   F   F   F
  0.1309549378495518  0.9578912708619924  0.1339264883772699   F   F   F
  0.3738734759987068  0.4632278444274434  0.4239593288681789   F   F   F
  0.4556522333904454  0.5480667654342994  0.2186221383272695   F   F   F
  0.6223492730154092  0.7108071654052921  0.4193234189318176   F   F   F
  0.9546323180157117  0.7862445906948139  0.2204777234045423   F   F   F
  0.7952433519350848  0.6233720806123415  0.3178861648500018   F   F   F
  0.2910546960486755  0.6294808734460986  0.3166392104409113   F   F   F
  0.2002708624331007  0.2770478458561030  0.2260251504045456   F   F   F
  0.7045829241556802  0.5516321129959252  0.2208851499954534   F   F   F
  0.0410472981536856  0.6314491917610283  0.3219382039590926   F   F   F
  0.7955110030430319  0.8609512276384805  0.0480385122272722   F   F   F
  0.0573949397823768  0.8629365884407534  0.0426982104681812   F   F   F
  0.0458753864337567  0.6317424305982726  0.0425419417454549   F   F   F
  0.6283988685906934  0.2264175371289738  0.1318427956090886   F   F   F
  0.3823587953945804  0.9533284287228625  0.1319694655727304   F   F   F
  0.0352907874713821  0.3839838271834495  0.3217571741909069   F   F   F
  0.0268079723616808  0.3797381930306329  0.0416316377136354   F   F   F
  0.8723791053676138  0.2158092365469457  0.1307545436727295   F   F   F
  0.9547024218507971  0.5436382700170128  0.2244670324363653   F   F   F
  0.2979558871682713  0.1137712694982227  0.3191463394909064   F   F   F
  0.5410389705270546  0.6276869454122860  0.3201345581318193   F   F   F
  0.2945049925961882  0.1170356248441848  0.0441488403727277   F   F   F
  0.5519685041016658  0.6240663073846946  0.0467109319272723   F   F   F
  0.2960777314503247  0.3827352514932940  0.0441011896590879   F   F   F
  0.6249515703976343  0.9461887287639286  0.1346385474090894   F   F   F
  0.7073007629469075  0.7919560005877955  0.2206980387772717   F   F   F
  0.8641642368870777  0.7014903972780502  0.1310198486954519   F   F   F
  0.6284097325721945  0.4565427356882950  0.1288810116500017   F   F   F
  0.2978955127626932  0.8729787345037110  0.3172172876727259   F   F   F
  0.3034084821940297  0.8750332447838289  0.0436180695045465   F   F   F
  0.6263955126564014  0.7168699604014037  0.1294389879545434   F   F   F
  0.2282460863355027  0.0251927252999806  0.2279743672272758   F   F   F
  0.5411956632024371  0.3786938250526219  0.0386404366090929   F   F   F
  0.3758860748220698  0.2062408198131820  0.1355179188181808   F   F   F
  0.1391045929531671  0.7049881574824539  0.1351065841363663   F   F   F
  0.7043988531711349  0.0514063915852887  0.2204906319818178   F   F   F
  0.7930931547165159  0.1292105777224677  0.3147880994954519   F   F   F
  0.5393612485080581  0.8718441697165389  0.3160535752318197   F   F   F
  0.7963472328275429  0.1231574992127094  0.0392939661590930   F   F   F
  0.5440945193985200  0.8759385405927063  0.0392459096681819   F   F   F
  0.2079024299005852  0.5431036366120594  0.2237859261272703   F   F   F
  0.9489325326236937  0.3007508570375990  0.2224478204318174   F   F   F
  0.8725112496294898  0.9655798376329443  0.1316447751227301   F   F   F
  0.7171476949159796  0.2914481447423398  0.2245606244909055   F   F   F
  0.4567330680043540  0.2945848388488770  0.2213046886454535   F   F   F
  0.8750294207410079  0.4572868458869976  0.1300096086727294   F   F   F
  0.1269801392207555  0.2054284542959337  0.1306704091090936   F   F   F
  0.7957063935882616  0.6202328764993581  0.0430280211045471   F   F   F
  0.2938692617776510  0.6266274624994352  0.0463221184909060   F   F   F
  0.3850310216699739  0.7148852913243218  0.1298736747000007   F   F   F
  0.3816718202388216  0.4522385150798698  0.1290563122090944   F   F   F
  0.7924765159120071  0.3817287541428414  0.3191593470136382   F   F   F
  0.7947937720711735  0.3739039784455045  0.0430364376636376   F   F   F
  0.9546170343474998  0.0559472075345013  0.2217931839272751   F   F   F
  0.4595337133946984  0.7957272121764092  0.2251697936636390   F   F   F
  0.2181471024034209  0.7973202649150295  0.2249219835909102   F   F   F
  0.4610829538139924  0.0274880027604922  0.2232129655818156   F   F   F
  0.3735681538675876  0.3384459594208309  0.4710789724863667   T   T   T
 
  0.00000000E+00  0.00000000E+00  0.00000000E+00
  0.00000000E+00  0.00000000E+00  0.00000000E+00
  0.00000000E+00  0.00000000E+00  0.00000000E+00
  0.00000000E+00  0.00000000E+00  0.00000000E+00
  0.00000000E+00  0.00000000E+00  0.00000000E+00
  0.00000000E+00  0.00000000E+00  0.00000000E+00
  0.00000000E+00  0.00000000E+00  0.00000000E+00
  0.00000000E+00  0.00000000E+00  0.00000000E+00
  0.00000000E+00  0.00000000E+00  0.00000000E+00
  0.00000000E+00  0.00000000E+00  0.00000000E+00
  0.00000000E+00  0.00000000E+00  0.00000000E+00
  0.00000000E+00  0.00000000E+00  0.00000000E+00
  0.00000000E+00  0.00000000E+00  0.00000000E+00
  0.00000000E+00  0.00000000E+00  0.00000000E+00
  0.00000000E+00  0.00000000E+00  0.00000000E+00
  0.00000000E+00  0.00000000E+00  0.00000000E+00
  0.00000000E+00  0.00000000E+00  0.00000000E+00
  0.00000000E+00  0.00000000E+00  0.00000000E+00
  0.00000000E+00  0.00000000E+00  0.00000000E+00
  0.00000000E+00  0.00000000E+00  0.00000000E+00
  0.00000000E+00  0.00000000E+00  0.00000000E+00
  0.00000000E+00  0.00000000E+00  0.00000000E+00
  0.00000000E+00  0.00000000E+00  0.00000000E+00
  0.00000000E+00  0.00000000E+00  0.00000000E+00
  0.00000000E+00  0.00000000E+00  0.00000000E+00
  0.00000000E+00  0.00000000E+00  0.00000000E+00
  0.00000000E+00  0.00000000E+00  0.00000000E+00
  0.00000000E+00  0.00000000E+00  0.00000000E+00
  0.00000000E+00  0.00000000E+00  0.00000000E+00
  0.00000000E+00  0.00000000E+00  0.00000000E+00
  0.00000000E+00  0.00000000E+00  0.00000000E+00
  0.00000000E+00  0.00000000E+00  0.00000000E+00
  0.00000000E+00  0.00000000E+00  0.00000000E+00
  0.00000000E+00  0.00000000E+00  0.00000000E+00
  0.00000000E+00  0.00000000E+00  0.00000000E+00
  0.00000000E+00  0.00000000E+00  0.00000000E+00
  0.00000000E+00  0.00000000E+00  0.00000000E+00
  0.00000000E+00  0.00000000E+00  0.00000000E+00
  0.00000000E+00  0.00000000E+00  0.00000000E+00
  0.00000000E+00  0.00000000E+00  0.00000000E+00
  0.00000000E+00  0.00000000E+00  0.00000000E+00
  0.00000000E+00  0.00000000E+00  0.00000000E+00
  0.00000000E+00  0.00000000E+00  0.00000000E+00
  0.00000000E+00  0.00000000E+00  0.00000000E+00
  0.00000000E+00  0.00000000E+00  0.00000000E+00
  0.00000000E+00  0.00000000E+00  0.00000000E+00
  0.00000000E+00  0.00000000E+00  0.00000000E+00
  0.00000000E+00  0.00000000E+00  0.00000000E+00
  0.00000000E+00  0.00000000E+00  0.00000000E+00
  0.00000000E+00  0.00000000E+00  0.00000000E+00
  0.00000000E+00  0.00000000E+00  0.00000000E+00
  0.00000000E+00  0.00000000E+00  0.00000000E+00
  0.00000000E+00  0.00000000E+00  0.00000000E+00
  0.00000000E+00  0.00000000E+00  0.00000000E+00
  0.00000000E+00  0.00000000E+00  0.00000000E+00
  0.00000000E+00  0.00000000E+00  0.00000000E+00
  0.00000000E+00  0.00000000E+00  0.00000000E+00
  0.00000000E+00  0.00000000E+00  0.00000000E+00
  0.00000000E+00  0.00000000E+00  0.00000000E+00
  0.00000000E+00  0.00000000E+00  0.00000000E+00
  0.00000000E+00  0.00000000E+00  0.00000000E+00
  0.00000000E+00  0.00000000E+00  0.00000000E+00
  0.00000000E+00  0.00000000E+00  0.00000000E+00
  0.00000000E+00  0.00000000E+00  0.00000000E+00
  0.00000000E+00  0.00000000E+00  0.00000000E+00
  0.00000000E+00  0.00000000E+00  0.00000000E+00
  0.00000000E+00  0.00000000E+00  0.00000000E+00
  0.00000000E+00  0.00000000E+00  0.00000000E+00
  0.00000000E+00  0.00000000E+00  0.00000000E+00
  0.00000000E+00  0.00000000E+00  0.00000000E+00
  0.00000000E+00  0.00000000E+00  0.00000000E+00
  0.00000000E+00  0.00000000E+00  0.00000000E+00
  0.00000000E+00  0.00000000E+00  0.00000000E+00
  0.00000000E+00  0.00000000E+00  0.00000000E+00
  0.00000000E+00  0.00000000E+00  0.00000000E+00
  0.00000000E+00  0.00000000E+00  0.00000000E+00
  0.00000000E+00  0.00000000E+00  0.00000000E+00
  0.00000000E+00  0.00000000E+00  0.00000000E+00
  0.00000000E+00  0.00000000E+00  0.00000000E+00
  0.00000000E+00  0.00000000E+00  0.00000000E+00
  0.00000000E+00  0.00000000E+00  0.00000000E+00
