10.66                                   
   1.00000000000000     
    10.6599998474000000    0.0000000000000000    0.0000000000000000
     5.3299999237000000    9.2318306721999992    0.0000000000000000
     0.0000000000000000    0.0000000000000000   22.0000000000000000
   Pt   Fe   Co   Cu   Ni
    32    13    10    13    12
Direct
  0.7861256863593605  0.8796297652269454  0.3167711217936040
  0.0419191268303965  0.8827772534331210  0.3150878585746787
  0.2791720194454843  0.3810259387994557  0.3188136104072420
  0.8736500234006234  0.9626237068818189  0.4223762005315781
  0.1209987438015919  0.4626705227281564  0.4259856968120934
  0.1240329440031119  0.9619970409823040  0.4203102918614801
  0.8735620784276100  0.4598061817755778  0.4247867207699851
  0.3736875873976662  0.9603417498339314  0.4191220424583395
  0.8733554278564972  0.2112056410397427  0.4191307431326424
  0.1249211592890926  0.2112534916256885  0.4208192578201836
  0.6239027556515037  0.9608506754518908  0.4223171163054333
  0.8732601808043385  0.7112313179646530  0.4249907438879146
  0.3739873731427770  0.2094866833562883  0.4231572723814039
  0.3748886047805820  0.7125438532361843  0.4225939048187038
  0.6248635115630791  0.4619149483601325  0.4213876820525564
  0.1234776873199938  0.7113165659816151  0.4248574803258297
  0.6242263017203395  0.2107028614342866  0.4204953695943391
  0.5482572636473808  0.3758542160536572  0.3165819382927109
  0.5336253777727535  0.1249970985307715  0.3141779320041180
  0.5486022592085530  0.1220783678685944  0.0417194611415952
  0.1203770114097503  0.4596758926671035  0.1283201030976798
  0.0431061669061958  0.1369007315024844  0.3136831220459124
  0.0418426388121554  0.1305148925810579  0.0343023685498086
  0.1308766909643815  0.9576410281415128  0.1324593496147445
  0.3737878599871504  0.4615231973788807  0.4248553067105189
  0.4546715961512631  0.5460618645742367  0.2188397207567249
  0.6220727489606664  0.7116725752056320  0.4225507191162584
  0.9554934287875538  0.7893554538270449  0.2208855773829689
  0.7944539130611099  0.6230630893647187  0.3187970170505420
  0.2911907996997594  0.6313609826284826  0.3178578487432609
  0.2023472006771223  0.2797412323973767  0.2253253999165454
  0.7056559987260197  0.5500194634942719  0.2211893440377545
  0.0403004952812667  0.6315238644414837  0.3245800745127314
  0.7960105560636619  0.8618201000152061  0.0435832611474746
  0.0565437832190315  0.8651109997139972  0.0392200758352678
  0.0435481061827130  0.6317236463198551  0.0389093084544680
  0.6276815134187131  0.2235163201369146  0.1293691217293250
  0.3825164796158809  0.9540841432396293  0.1307328652720948
  0.0356262068150787  0.3838485749509044  0.3235828069027620
  0.0278953743103070  0.3811135671640917  0.0392268803141976
  0.8723854835022677  0.2152433571613606  0.1290949134478997
  0.9546093273791901  0.5451190678076948  0.2239290030784503
  0.2965973711227775  0.1157831908740188  0.3206542093390759
  0.5399736326311290  0.6296830173231807  0.3217857033536382
  0.2959387413118170  0.1156684851677801  0.0410976887415611
  0.5491575652154018  0.6253534475458464  0.0451299578275532
  0.2944436057250911  0.3818825695141892  0.0395469972655737
  0.6257779840718209  0.9479981115408656  0.1328387403237787
  0.7066556847877548  0.7938172325064490  0.2205763909520201
  0.8652306351081124  0.7044347069476583  0.1296516185611880
  0.6267408805073169  0.4597839886320245  0.1279108792224091
  0.2969519208394704  0.8754488245023900  0.3179710943145811
  0.3065683121049825  0.8685951938635950  0.0415361194209030
  0.6265607890765816  0.7150544964896928  0.1290314723709651
  0.2244809995754268  0.0278325020599041  0.2274696501947230
  0.5442540274229213  0.3813987627241328  0.0359396309855459
  0.3788308164975533  0.2041435759400281  0.1334105030950751
  0.1370202990342591  0.7046968196457141  0.1327566403370997
  0.7045230903535852  0.0505786573465947  0.2203019766693214
  0.7924309874270673  0.1298657318717284  0.3162853080297695
  0.5379990483137191  0.8730732941909733  0.3166943773583942
  0.7969090446324160  0.1230080278114403  0.0358981495895029
  0.5463967724820008  0.8699164031409661  0.0370350138550706
  0.2074726852177711  0.5428352345222780  0.2238711432217597
  0.9510909908093678  0.2979328413997098  0.2216904374046250
  0.8720363512211011  0.9641267701864231  0.1296642823056899
  0.7148815636296109  0.2904304141625131  0.2237259403126785
  0.4575224779053410  0.2924903229831965  0.2208079187402979
  0.8754952507770124  0.4570332552358796  0.1289402077098295
  0.1280802376361881  0.2061871464288189  0.1293457843359089
  0.7920109362167824  0.6217651118885726  0.0414976089785052
  0.2975223793243161  0.6287043760618664  0.0435603156157414
  0.3861497401590614  0.7125257726307286  0.1296682481721131
  0.3823461753098283  0.4514638794533479  0.1268844718154188
  0.7925933792386316  0.3800350857258096  0.3200923693657553
  0.7914206266299272  0.3768939204327168  0.0409385091401176
  0.9554415673324478  0.0534531705332596  0.2215516886094883
  0.4574720570230837  0.7969839228047005  0.2249815099788929
  0.2141434345268410  0.7976255665879219  0.2247769468144948
  0.4619681314474892  0.0292740430443038  0.2223939279871198
 
  0.00000000E+00  0.00000000E+00  0.00000000E+00
  0.00000000E+00  0.00000000E+00  0.00000000E+00
  0.00000000E+00  0.00000000E+00  0.00000000E+00
  0.00000000E+00  0.00000000E+00  0.00000000E+00
  0.00000000E+00  0.00000000E+00  0.00000000E+00
  0.00000000E+00  0.00000000E+00  0.00000000E+00
  0.00000000E+00  0.00000000E+00  0.00000000E+00
  0.00000000E+00  0.00000000E+00  0.00000000E+00
  0.00000000E+00  0.00000000E+00  0.00000000E+00
  0.00000000E+00  0.00000000E+00  0.00000000E+00
  0.00000000E+00  0.00000000E+00  0.00000000E+00
  0.00000000E+00  0.00000000E+00  0.00000000E+00
  0.00000000E+00  0.00000000E+00  0.00000000E+00
  0.00000000E+00  0.00000000E+00  0.00000000E+00
  0.00000000E+00  0.00000000E+00  0.00000000E+00
  0.00000000E+00  0.00000000E+00  0.00000000E+00
  0.00000000E+00  0.00000000E+00  0.00000000E+00
  0.00000000E+00  0.00000000E+00  0.00000000E+00
  0.00000000E+00  0.00000000E+00  0.00000000E+00
  0.00000000E+00  0.00000000E+00  0.00000000E+00
  0.00000000E+00  0.00000000E+00  0.00000000E+00
  0.00000000E+00  0.00000000E+00  0.00000000E+00
  0.00000000E+00  0.00000000E+00  0.00000000E+00
  0.00000000E+00  0.00000000E+00  0.00000000E+00
  0.00000000E+00  0.00000000E+00  0.00000000E+00
  0.00000000E+00  0.00000000E+00  0.00000000E+00
  0.00000000E+00  0.00000000E+00  0.00000000E+00
  0.00000000E+00  0.00000000E+00  0.00000000E+00
  0.00000000E+00  0.00000000E+00  0.00000000E+00
  0.00000000E+00  0.00000000E+00  0.00000000E+00
  0.00000000E+00  0.00000000E+00  0.00000000E+00
  0.00000000E+00  0.00000000E+00  0.00000000E+00
  0.00000000E+00  0.00000000E+00  0.00000000E+00
  0.00000000E+00  0.00000000E+00  0.00000000E+00
  0.00000000E+00  0.00000000E+00  0.00000000E+00
  0.00000000E+00  0.00000000E+00  0.00000000E+00
  0.00000000E+00  0.00000000E+00  0.00000000E+00
  0.00000000E+00  0.00000000E+00  0.00000000E+00
  0.00000000E+00  0.00000000E+00  0.00000000E+00
  0.00000000E+00  0.00000000E+00  0.00000000E+00
  0.00000000E+00  0.00000000E+00  0.00000000E+00
  0.00000000E+00  0.00000000E+00  0.00000000E+00
  0.00000000E+00  0.00000000E+00  0.00000000E+00
  0.00000000E+00  0.00000000E+00  0.00000000E+00
  0.00000000E+00  0.00000000E+00  0.00000000E+00
  0.00000000E+00  0.00000000E+00  0.00000000E+00
  0.00000000E+00  0.00000000E+00  0.00000000E+00
  0.00000000E+00  0.00000000E+00  0.00000000E+00
  0.00000000E+00  0.00000000E+00  0.00000000E+00
  0.00000000E+00  0.00000000E+00  0.00000000E+00
  0.00000000E+00  0.00000000E+00  0.00000000E+00
  0.00000000E+00  0.00000000E+00  0.00000000E+00
  0.00000000E+00  0.00000000E+00  0.00000000E+00
  0.00000000E+00  0.00000000E+00  0.00000000E+00
  0.00000000E+00  0.00000000E+00  0.00000000E+00
  0.00000000E+00  0.00000000E+00  0.00000000E+00
  0.00000000E+00  0.00000000E+00  0.00000000E+00
  0.00000000E+00  0.00000000E+00  0.00000000E+00
  0.00000000E+00  0.00000000E+00  0.00000000E+00
  0.00000000E+00  0.00000000E+00  0.00000000E+00
  0.00000000E+00  0.00000000E+00  0.00000000E+00
  0.00000000E+00  0.00000000E+00  0.00000000E+00
  0.00000000E+00  0.00000000E+00  0.00000000E+00
  0.00000000E+00  0.00000000E+00  0.00000000E+00
  0.00000000E+00  0.00000000E+00  0.00000000E+00
  0.00000000E+00  0.00000000E+00  0.00000000E+00
  0.00000000E+00  0.00000000E+00  0.00000000E+00
  0.00000000E+00  0.00000000E+00  0.00000000E+00
  0.00000000E+00  0.00000000E+00  0.00000000E+00
  0.00000000E+00  0.00000000E+00  0.00000000E+00
  0.00000000E+00  0.00000000E+00  0.00000000E+00
  0.00000000E+00  0.00000000E+00  0.00000000E+00
  0.00000000E+00  0.00000000E+00  0.00000000E+00
  0.00000000E+00  0.00000000E+00  0.00000000E+00
  0.00000000E+00  0.00000000E+00  0.00000000E+00
  0.00000000E+00  0.00000000E+00  0.00000000E+00
  0.00000000E+00  0.00000000E+00  0.00000000E+00
  0.00000000E+00  0.00000000E+00  0.00000000E+00
  0.00000000E+00  0.00000000E+00  0.00000000E+00
  0.00000000E+00  0.00000000E+00  0.00000000E+00
