Pt   H                                  
   1.00000000000000     
    11.2227001190000006    0.0000000000000000    0.0000000000000000
     5.6113500595000003    9.7191434021000003    0.0000000000000000
     0.0000000000000000    0.0000000000000000   22.0000000000000000
   Pt   H 
    80    16
Direct
  0.7836938615050733  0.8704856110867698  0.3265124799171839
  0.0336409731390622  0.8706014335048519  0.3265176895272773
  0.0334946799634040  0.6208200386523013  0.3266761597531625
  0.7847321018708550  0.8695808396449594  0.0213406434066030
  0.0340079031159265  0.8696217187138765  0.0213172029386260
  0.0340265365256742  0.6202387066920984  0.0215256711756574
  0.6172729125444246  0.2033696653749485  0.1248121316865770
  0.3672799882930560  0.9535924265294806  0.1246345088534513
  0.0343572174187404  0.3703047190387246  0.3262970814784392
  0.0347725619933164  0.3688577905659425  0.0217450207255877
  0.8674961696902928  0.2034251589135054  0.1248243930518580
  0.9503341546463526  0.5373315478629362  0.2249508772794585
  0.2834353734760058  0.1209382383709155  0.3268746405511949
  0.5334131286739775  0.6209756525096491  0.3254366159941287
  0.2831243780700574  0.3702626933583917  0.3262190505037303
  0.2839570733695719  0.1202933496365041  0.0217582894249148
  0.5346156420039452  0.6190346249020376  0.0212772239147684
  0.2846827135303853  0.3688543927152630  0.0217154210531643
  0.6173729480449215  0.9535178394918193  0.1246892106245159
  0.7008401432962952  0.7869070213220056  0.2247082041846700
  0.8674050146720310  0.7035784322015294  0.1247089078110545
  0.6175139102577720  0.4531369586323171  0.1246327727255330
  0.2829294276902649  0.8721045065368970  0.3256873562099054
  0.2842923182090439  0.8697399955984656  0.0215011491705626
  0.6173544460683050  0.7035489397972270  0.1244404613983597
  0.2007196270783977  0.0368116092754050  0.2251047567078708
  0.8670050981351978  0.9536306724648080  0.4323239010377480
  0.1165424257314421  0.4545529772726528  0.4326162989136967
  0.1176277920553993  0.9534092125204799  0.4324090060046005
  0.8625714599585407  0.4565332860480415  0.4308880146038646
  0.3672388371998677  0.9531901495489939  0.4323450656040415
  0.8659635180487094  0.2058881528184134  0.4326876309348185
  0.1157744982704632  0.2050796386143508  0.4326468241472333
  0.6166638736785018  0.9533097227333844  0.4323434352866286
  0.8659303000496275  0.7031034532330389  0.4328790533410690
  0.3668666485626510  0.2050498546513850  0.4325866241447459
  0.3691026407575090  0.7008648614386592  0.4300529981031014
  0.6142977351570660  0.4590602304158759  0.4311441652475185
  0.1184862030146397  0.7031890218896295  0.4328308726461170
  0.6158682131209817  0.2058234138628416  0.4324862069991491
  0.5335357237008528  0.3706534981936468  0.3263837072400012
  0.5344724125249347  0.3698332867835391  0.0214078324511809
  0.5335340206163045  0.1205937059655713  0.3266508232003104
  0.5337364674965989  0.1200752416642363  0.0218184276244842
  0.8677861770128449  0.4532393136793442  0.1246433105362668
  0.1173743347142005  0.4534406597326402  0.1247175956684604
  0.0335808428085736  0.1207218348643785  0.3267230626763495
  0.0344575525251884  0.1200553152453894  0.0218379371861102
  0.1173113678887457  0.9535373973478805  0.1246922521873227
  0.3683916622930921  0.4565922280111219  0.4306528324245587
  0.4504825511563474  0.5370027064727860  0.2246038441013739
  0.6177612565988568  0.7006359872923166  0.4301369096971990
  0.3672210738330050  0.2033194252306308  0.1255027972842234
  0.1175459131629132  0.2033509384296122  0.1255354779580204
  0.9504568868190869  0.7871262972140325  0.2249559097507193
  0.7839804286399074  0.6210550641080417  0.3259492341517444
  0.2826974059253589  0.6212020994331241  0.3258802710203021
  0.7841044498262650  0.6199609525989934  0.0215732557785238
  0.2841918450702750  0.6198998913380379  0.0215713767144088
  0.3672998469158166  0.7035305688699826  0.1244380590965205
  0.3671502619246446  0.4531999331581686  0.1246170503990809
  0.2001352069086592  0.2876328520025333  0.2254316267078574
  0.7833233514372155  0.3707450683564385  0.3265278618054369
  0.7840376186016151  0.3698704936904838  0.0214263384606643
  0.9505515753857456  0.0370267871703289  0.2250742847443213
  0.4510742980666082  0.7859079968666095  0.2246582657520515
  0.7005420477127466  0.5370213144806961  0.2246138941700854
  0.2002592360119584  0.7869749000389121  0.2246822405382125
  0.4505160221520366  0.0367066552359650  0.2250871798939129
  0.1171827018277182  0.7036070364898148  0.1246998781793059
  0.7005027608894037  0.0369896180837103  0.2250772417515568
  0.7838446624356091  0.1202467469483538  0.3266702308004900
  0.5328876443300539  0.8719877355292525  0.3257229930664146
  0.7845304025437423  0.1191947625760535  0.0218033619931334
  0.5342692775180627  0.8697402435204046  0.0214989752010297
  0.2003394335095757  0.5373507852484772  0.2249164367365547
  0.9489497552285845  0.2875942837727082  0.2254928719931008
  0.8673602126672463  0.9534537807508749  0.1248549349629087
  0.7005913511092465  0.2868322893576508  0.2250650164634179
  0.4514058409091140  0.2874591242963768  0.2253881697749969
  0.5555857747607599  0.4943271515003753  0.5252280249656450
  0.6302980434118958  0.4821090816568849  0.5285249829480906
  0.2040787134867200  0.7847649126614351  0.4724922269162185
  0.4517321123914340  0.7842016661887403  0.4716518857813527
  0.6987511900267223  0.7847602487140286  0.4725120330568057
  0.9504269717998416  0.7867560070057356  0.4728348083332612
  0.2033044935106224  0.5365404143697028  0.4728146941162840
  0.9478975167010022  0.5364641382619925  0.4728888558348882
  0.2000694379181890  0.2877141462362492  0.4733754147993291
  0.4491356337063048  0.2924545558963603  0.4728470962524227
  0.7084942985802536  0.2705444788645391  0.4732018621893340
  0.9462975059859731  0.2923758193267441  0.4730248469514406
  0.2001066813993376  0.0372831618865472  0.4730717945958895
  0.4503163306623956  0.0373078208263424  0.4730242006219942
  0.6999590353166882  0.0366592335499676  0.4726118846364502
  0.9510396105098627  0.0365910647709322  0.4726904455621426
 
  0.00000000E+00  0.00000000E+00  0.00000000E+00
  0.00000000E+00  0.00000000E+00  0.00000000E+00
  0.00000000E+00  0.00000000E+00  0.00000000E+00
  0.00000000E+00  0.00000000E+00  0.00000000E+00
  0.00000000E+00  0.00000000E+00  0.00000000E+00
  0.00000000E+00  0.00000000E+00  0.00000000E+00
  0.00000000E+00  0.00000000E+00  0.00000000E+00
  0.00000000E+00  0.00000000E+00  0.00000000E+00
  0.00000000E+00  0.00000000E+00  0.00000000E+00
  0.00000000E+00  0.00000000E+00  0.00000000E+00
  0.00000000E+00  0.00000000E+00  0.00000000E+00
  0.00000000E+00  0.00000000E+00  0.00000000E+00
  0.00000000E+00  0.00000000E+00  0.00000000E+00
  0.00000000E+00  0.00000000E+00  0.00000000E+00
  0.00000000E+00  0.00000000E+00  0.00000000E+00
  0.00000000E+00  0.00000000E+00  0.00000000E+00
  0.00000000E+00  0.00000000E+00  0.00000000E+00
  0.00000000E+00  0.00000000E+00  0.00000000E+00
  0.00000000E+00  0.00000000E+00  0.00000000E+00
  0.00000000E+00  0.00000000E+00  0.00000000E+00
  0.00000000E+00  0.00000000E+00  0.00000000E+00
  0.00000000E+00  0.00000000E+00  0.00000000E+00
  0.00000000E+00  0.00000000E+00  0.00000000E+00
  0.00000000E+00  0.00000000E+00  0.00000000E+00
  0.00000000E+00  0.00000000E+00  0.00000000E+00
  0.00000000E+00  0.00000000E+00  0.00000000E+00
  0.00000000E+00  0.00000000E+00  0.00000000E+00
  0.00000000E+00  0.00000000E+00  0.00000000E+00
  0.00000000E+00  0.00000000E+00  0.00000000E+00
  0.00000000E+00  0.00000000E+00  0.00000000E+00
  0.00000000E+00  0.00000000E+00  0.00000000E+00
  0.00000000E+00  0.00000000E+00  0.00000000E+00
  0.00000000E+00  0.00000000E+00  0.00000000E+00
  0.00000000E+00  0.00000000E+00  0.00000000E+00
  0.00000000E+00  0.00000000E+00  0.00000000E+00
  0.00000000E+00  0.00000000E+00  0.00000000E+00
  0.00000000E+00  0.00000000E+00  0.00000000E+00
  0.00000000E+00  0.00000000E+00  0.00000000E+00
  0.00000000E+00  0.00000000E+00  0.00000000E+00
  0.00000000E+00  0.00000000E+00  0.00000000E+00
  0.00000000E+00  0.00000000E+00  0.00000000E+00
  0.00000000E+00  0.00000000E+00  0.00000000E+00
  0.00000000E+00  0.00000000E+00  0.00000000E+00
  0.00000000E+00  0.00000000E+00  0.00000000E+00
  0.00000000E+00  0.00000000E+00  0.00000000E+00
  0.00000000E+00  0.00000000E+00  0.00000000E+00
  0.00000000E+00  0.00000000E+00  0.00000000E+00
  0.00000000E+00  0.00000000E+00  0.00000000E+00
  0.00000000E+00  0.00000000E+00  0.00000000E+00
  0.00000000E+00  0.00000000E+00  0.00000000E+00
  0.00000000E+00  0.00000000E+00  0.00000000E+00
  0.00000000E+00  0.00000000E+00  0.00000000E+00
  0.00000000E+00  0.00000000E+00  0.00000000E+00
  0.00000000E+00  0.00000000E+00  0.00000000E+00
  0.00000000E+00  0.00000000E+00  0.00000000E+00
  0.00000000E+00  0.00000000E+00  0.00000000E+00
  0.00000000E+00  0.00000000E+00  0.00000000E+00
  0.00000000E+00  0.00000000E+00  0.00000000E+00
  0.00000000E+00  0.00000000E+00  0.00000000E+00
  0.00000000E+00  0.00000000E+00  0.00000000E+00
  0.00000000E+00  0.00000000E+00  0.00000000E+00
  0.00000000E+00  0.00000000E+00  0.00000000E+00
  0.00000000E+00  0.00000000E+00  0.00000000E+00
  0.00000000E+00  0.00000000E+00  0.00000000E+00
  0.00000000E+00  0.00000000E+00  0.00000000E+00
  0.00000000E+00  0.00000000E+00  0.00000000E+00
  0.00000000E+00  0.00000000E+00  0.00000000E+00
  0.00000000E+00  0.00000000E+00  0.00000000E+00
  0.00000000E+00  0.00000000E+00  0.00000000E+00
  0.00000000E+00  0.00000000E+00  0.00000000E+00
  0.00000000E+00  0.00000000E+00  0.00000000E+00
  0.00000000E+00  0.00000000E+00  0.00000000E+00
  0.00000000E+00  0.00000000E+00  0.00000000E+00
  0.00000000E+00  0.00000000E+00  0.00000000E+00
  0.00000000E+00  0.00000000E+00  0.00000000E+00
  0.00000000E+00  0.00000000E+00  0.00000000E+00
  0.00000000E+00  0.00000000E+00  0.00000000E+00
  0.00000000E+00  0.00000000E+00  0.00000000E+00
  0.00000000E+00  0.00000000E+00  0.00000000E+00
  0.00000000E+00  0.00000000E+00  0.00000000E+00
  0.00000000E+00  0.00000000E+00  0.00000000E+00
  0.00000000E+00  0.00000000E+00  0.00000000E+00
  0.00000000E+00  0.00000000E+00  0.00000000E+00
  0.00000000E+00  0.00000000E+00  0.00000000E+00
  0.00000000E+00  0.00000000E+00  0.00000000E+00
  0.00000000E+00  0.00000000E+00  0.00000000E+00
  0.00000000E+00  0.00000000E+00  0.00000000E+00
  0.00000000E+00  0.00000000E+00  0.00000000E+00
  0.00000000E+00  0.00000000E+00  0.00000000E+00
  0.00000000E+00  0.00000000E+00  0.00000000E+00
  0.00000000E+00  0.00000000E+00  0.00000000E+00
  0.00000000E+00  0.00000000E+00  0.00000000E+00
  0.00000000E+00  0.00000000E+00  0.00000000E+00
  0.00000000E+00  0.00000000E+00  0.00000000E+00
  0.00000000E+00  0.00000000E+00  0.00000000E+00
  0.00000000E+00  0.00000000E+00  0.00000000E+00
